[TITLE]
RealTimers Chennai pilot: 245.4 mm in 2880 min, from the GCC drain register

[OPTIONS]
FLOW_UNITS CMS
INFILTRATION CURVE_NUMBER
FLOW_ROUTING DYNWAVE
LINK_OFFSETS DEPTH
START_DATE 01/01/2026
START_TIME 00:00:00
REPORT_START_DATE 01/01/2026
REPORT_START_TIME 00:00:00
END_DATE 01/03/2026
END_TIME 04:00:00
REPORT_STEP 00:05:00
WET_STEP 00:01:00
DRY_STEP 00:05:00
ROUTING_STEP 0:00:05
ALLOW_PONDING NO
INERTIAL_DAMPING PARTIAL
VARIABLE_STEP 0.75
LENGTHENING_STEP 10
MIN_SURFAREA 1.167
NORMAL_FLOW_LIMITED BOTH
HEAD_TOLERANCE 0.0015
MAX_TRIALS 8
MINIMUM_STEP 0.5
THREADS 1

[RAINGAGES]
RG1 INTENSITY 0:05 1.0 TIMESERIES STORM

[SUBCATCHMENTS]
S0 RG1 N5294 19.7000 60.3 410.2 5.37 0
S1 RG1 N5395 4.2900 50.5 222.9 6.75 0
S2 RG1 N5371 5.9000 81.9 253.2 4.00 0
S3 RG1 N5388 4.3300 75.6 223.8 5.47 0
S4 RG1 N5411 24.0000 81.7 443.9 4.46 0
S5 RG1 N5033 5.9600 81.3 254.3 4.82 0
S6 RG1 N5046 4.9000 82.7 235.1 4.75 0
S7 RG1 N5059 0.2500 75.6 71.5 11.73 0
S8 RG1 N5060 9.6600 77.9 308.5 6.57 0
S9 RG1 N4824 4.1700 84.9 220.4 6.74 0
S11 RG1 N1005 9.3400 83.7 304.3 5.88 0
S12 RG1 N388 5.4700 78.9 245.7 6.68 0
S13 RG1 N391 1.6200 84.3 151.0 6.91 0
S14 RG1 N424 9.1400 74.1 301.7 7.75 0
S15 RG1 N395 6.2200 61.2 258.7 7.31 0
S16 RG1 N564 9.4700 77.7 306.0 6.60 0
S17 RG1 N550 8.6100 60.9 294.6 8.59 0
S18 RG1 N373 8.6600 83.1 295.3 5.34 0
S19 RG1 N5052 12.8000 80.9 345.2 7.05 0
S20 RG1 N5059 5.9500 73.0 254.1 9.81 0
S21 RG1 N581 3.4300 74.0 203.9 7.66 0
S23 RG1 N997 5.4100 84.7 244.6 4.13 0
S24 RG1 N1000 23.1700 81.2 437.7 5.57 0
S25 RG1 N443 6.4700 76.7 262.8 6.14 0
S26 RG1 N439 7.4400 78.6 277.9 6.69 0
S27 RG1 N4864 15.7100 68.5 374.7 6.37 0
S28 RG1 N580 5.3000 77.1 242.6 6.70 0
S29 RG1 N4823 6.1900 78.8 258.2 9.03 0
S30 RG1 N4823 0.6400 63.9 104.2 7.52 0
S32 RG1 N605 9.2300 62.0 302.9 6.14 0
S33 RG1 N576 4.8200 66.7 233.6 7.63 0
S34 RG1 N395 2.2000 70.3 170.7 9.75 0
S35 RG1 N419 7.3900 62.6 277.1 9.10 0
S36 RG1 N5289 4.4000 15.2 225.2 4.60 0
S37 RG1 N5396 10.8600 69.3 323.2 4.98 0
S38 RG1 N5061 6.6200 78.4 265.2 6.57 0
S39 RG1 N4823 2.6700 77.1 184.4 7.33 0
S40 RG1 N557 7.2800 83.1 275.5 5.78 0
S41 RG1 N422 4.2300 74.5 221.7 9.66 0
S42 RG1 N398 20.6600 71.3 418.1 9.82 0
S43 RG1 N1070 9.2500 75.4 303.2 6.66 0
S44 RG1 N1054 1.5000 83.5 146.4 5.40 0
S45 RG1 N5062 12.6900 83.2 344.0 5.26 0
S46 RG1 N1126 0.5900 83.5 100.8 7.48 0
S49 RG1 N1056 9.4300 83.0 305.5 6.39 0
S50 RG1 N1080 11.4400 84.0 330.0 5.86 0
S51 RG1 N4873 4.0200 80.1 217.2 7.82 0
S52 RG1 N5054 3.5200 79.2 206.0 5.41 0
S53 RG1 N1182 10.9200 63.3 324.0 6.23 0
S54 RG1 N1046 9.2900 82.0 303.7 6.98 0
S55 RG1 N1131 6.4900 70.1 263.1 7.48 0
S56 RG1 N4835 8.7100 73.0 295.9 6.94 0
S57 RG1 N5329 0.5500 21.2 98.0 5.24 0
S58 RG1 N5374 3.9100 33.9 214.8 7.07 0
S59 RG1 N5009 9.6000 83.9 307.7 4.95 0
S60 RG1 N5003 5.1300 82.5 239.5 6.33 0
S61 RG1 N5056 4.6200 74.0 229.6 7.70 0
S62 RG1 N5061 6.4600 75.3 262.6 6.76 0
S63 RG1 N942 6.8800 84.6 269.3 6.14 0
S64 RG1 N4821 4.1200 84.7 219.4 5.28 0
S65 RG1 N5020 3.7800 81.4 211.9 9.33 0
S66 RG1 N1220 4.2300 79.4 221.7 6.87 0
S67 RG1 N4875 3.7600 79.0 211.5 6.36 0
S68 RG1 N4855 4.4100 80.5 225.4 6.90 0
S69 RG1 N5304 8.7700 74.5 296.8 5.56 0
S70 RG1 N5313 5.0300 53.4 237.6 6.18 0
S71 RG1 N552 6.2500 66.4 259.2 6.60 0
S72 RG1 N551 6.6100 42.4 265.0 7.89 0
S73 RG1 N5012 3.1100 81.8 196.0 5.65 0
S74 RG1 N438 8.4900 73.5 292.9 7.94 0
S75 RG1 N5043 9.1600 76.0 302.0 5.72 0
S76 RG1 N456 3.5700 79.4 207.1 6.60 0
S77 RG1 N461 9.3300 69.4 304.2 9.04 0
S78 RG1 N5376 5.9800 57.1 254.6 6.92 0
S80 RG1 N4819 18.2500 76.0 397.8 5.47 0
S81 RG1 N1163 15.7100 68.2 374.7 7.25 0
S82 RG1 N4839 8.8300 80.4 297.6 6.56 0
S83 RG1 N5359 0.0600 15.0 40.4 3.99 0
S84 RG1 N553 4.5200 80.9 227.6 6.99 0
S85 RG1 N5345 9.2600 65.9 303.3 4.97 0
S86 RG1 N1415 16.4900 73.6 382.0 5.85 0
S87 RG1 N565 1.0300 63.3 126.0 12.39 0
S88 RG1 N571 11.2900 58.2 328.3 7.10 0
S89 RG1 N571 0.4500 40.0 90.5 1.97 0
S90 RG1 N517 5.0900 73.8 238.7 8.22 0
S91 RG1 N571 7.5400 53.5 279.4 5.71 0
S92 RG1 N540 7.2200 73.9 274.5 9.19 0
S93 RG1 N516 5.6600 70.1 249.1 6.71 0
S94 RG1 N596 12.4400 68.5 341.3 9.62 0
S95 RG1 N4872 1.4100 84.8 142.9 6.11 0
S96 RG1 N400 15.7900 70.8 375.5 7.88 0
S97 RG1 N409 16.7000 66.7 384.0 9.45 0
S98 RG1 N523 6.0900 73.2 256.5 8.13 0
S99 RG1 N992 4.3400 84.3 224.0 6.49 0
S100 RG1 N5141 4.8800 85.0 234.7 5.85 0
S101 RG1 N520 8.7700 66.6 296.8 6.69 0
S102 RG1 N4845 1.3200 77.9 139.1 10.23 0
S103 RG1 N4859 8.6800 80.2 295.5 7.01 0
S104 RG1 N1167 4.2500 69.6 222.1 9.10 0
S105 RG1 N1219 2.9000 72.9 190.6 5.82 0
S107 RG1 N1160 1.0300 82.2 126.0 8.49 0
S108 RG1 N577 4.9900 76.6 236.8 5.06 0
S109 RG1 N1162 7.0700 80.3 272.3 7.43 0
S110 RG1 N4850 7.4400 76.8 277.9 7.55 0
S111 RG1 N882 6.2100 69.5 258.5 4.84 0
S112 RG1 N880 4.8900 69.8 234.9 6.44 0
S113 RG1 N1190 19.5500 76.2 408.9 6.13 0
S114 RG1 N1128 5.3800 71.0 244.1 8.14 0
S115 RG1 N5271 5.3900 81.2 244.3 5.04 0
S116 RG1 N5320 11.6100 80.1 332.0 5.00 0
S117 RG1 N1370 12.2900 78.5 339.6 5.90 0
S118 RG1 N1205 1.4200 44.7 143.3 7.00 0
S119 RG1 N5072 11.8400 84.3 334.6 6.02 0
S120 RG1 N1127 3.1200 81.7 196.3 8.07 0
S121 RG1 N1001 4.7200 84.2 231.6 5.82 0
S122 RG1 N1463 16.4500 70.1 381.7 6.93 0
S123 RG1 N1161 8.1800 66.8 288.6 8.33 0
S124 RG1 N1138 8.5000 73.7 293.1 8.68 0
S125 RG1 N1448 8.0900 79.0 287.3 4.01 0
S126 RG1 N994 14.0800 80.2 358.6 5.33 0
S127 RG1 N5016 11.8200 58.0 334.4 7.49 0
S128 RG1 N5021 12.9000 74.6 346.3 7.91 0
S129 RG1 N1210 10.1500 79.2 314.6 5.36 0
S130 RG1 N1213 5.9000 82.7 253.2 6.19 0
S131 RG1 N1208 11.1500 76.7 326.7 5.47 0
S132 RG1 N1218 14.8200 69.6 366.1 6.83 0
S133 RG1 N885 10.2700 82.7 316.1 5.38 0
S134 RG1 N911 6.7900 62.2 267.9 6.35 0
S136 RG1 N914 7.4200 74.4 277.6 6.32 0
S137 RG1 N908 0.6100 85.0 102.2 3.97 0
S138 RG1 N524 13.6300 55.3 354.0 8.20 0
S139 RG1 N537 2.1100 73.2 167.8 7.44 0
S140 RG1 N585 15.4400 73.2 372.1 7.89 0
S141 RG1 N4850 5.2200 79.8 241.1 6.65 0
S142 RG1 N590 0.3400 85.0 80.9 7.20 0
S143 RG1 N753 0.8400 84.1 116.1 6.68 0
S144 RG1 N1139 4.2000 81.4 221.1 7.37 0
S145 RG1 N5087 4.9200 83.0 235.5 7.79 0
S146 RG1 N1122 10.4600 74.4 318.4 8.71 0
S147 RG1 N1141 6.7200 66.6 266.8 8.80 0
S148 RG1 N597 5.1000 75.6 238.9 6.24 0
S149 RG1 N4826 9.5100 76.5 306.5 6.01 0
S150 RG1 N522 1.7900 68.0 157.2 6.65 0
S151 RG1 N592 4.8300 80.9 233.8 8.96 0
S152 RG1 N517 4.2900 70.3 222.9 7.16 0
S153 RG1 N753 0.3500 83.4 81.8 15.45 0
S154 RG1 N790 2.9200 81.5 191.1 6.33 0
S155 RG1 N788 10.1100 58.7 314.1 8.81 0
S156 RG1 N505 7.5000 70.6 278.8 7.03 0
S157 RG1 N514 4.3800 75.1 224.8 5.87 0
S158 RG1 N808 0.3200 85.0 78.9 5.81 0
S159 RG1 N599 5.0800 76.8 238.5 5.01 0
S160 RG1 N598 4.2600 78.6 222.3 6.71 0
S161 RG1 N792 8.1600 84.7 288.3 5.91 0
S162 RG1 N458 4.5400 70.6 228.0 8.87 0
S163 RG1 N410 5.2300 80.6 241.3 8.49 0
S164 RG1 N536 7.0600 62.1 272.1 7.58 0
S165 RG1 N755 4.1400 81.5 219.8 9.69 0
S166 RG1 N754 5.0400 85.1 237.8 5.06 0
S167 RG1 N503 4.1200 75.5 219.4 5.97 0
S168 RG1 N785 5.8000 25.2 251.5 5.68 0
S169 RG1 N782 2.9700 49.3 192.4 5.44 0
S170 RG1 N788 5.0900 67.4 238.7 6.42 0
S171 RG1 N794 2.4600 62.4 178.5 7.24 0
S172 RG1 N908 4.3500 78.6 224.2 5.32 0
S173 RG1 N920 7.3600 79.3 276.7 6.38 0
S174 RG1 N604 3.5800 80.9 207.4 4.77 0
S175 RG1 N593 6.8700 77.4 269.1 6.71 0
S176 RG1 N782 6.1900 49.1 258.2 6.72 0
S177 RG1 N810 3.7600 54.8 211.5 7.24 0
S178 RG1 N1344 7.3100 83.2 275.9 7.07 0
S179 RG1 N875 20.0200 71.6 412.8 6.37 0
S180 RG1 N893 5.9200 69.4 253.6 7.44 0
S181 RG1 N4931 0.9300 83.2 120.9 9.16 0
S182 RG1 N504 13.2900 83.6 350.4 6.43 0
S183 RG1 N756 2.0300 79.9 165.3 7.61 0
S184 RG1 N757 7.5300 84.8 279.2 5.42 0
S185 RG1 N459 1.7900 71.3 157.2 9.35 0
S186 RG1 N4830 13.0800 64.2 348.2 8.17 0
S187 RG1 N1350 6.4000 83.1 261.6 4.51 0
S188 RG1 N1351 4.4300 81.8 225.8 4.44 0
S189 RG1 N454 4.5400 69.8 228.0 8.93 0
S190 RG1 N643 32.0900 72.9 498.6 7.66 0
S191 RG1 N4826 0.0600 85.0 40.4 3.89 0
S192 RG1 N794 5.6300 60.7 248.5 4.65 0
S193 RG1 N645 13.7300 71.8 355.0 6.58 0
S194 RG1 N5076 5.4200 84.9 244.8 6.89 0
S195 RG1 N5091 4.1600 83.5 220.2 7.59 0
S196 RG1 N478 0.7800 82.0 112.7 8.52 0
S197 RG1 N5090 0.1300 85.0 55.1 7.48 0
S198 RG1 N1115 11.5600 82.7 331.4 8.05 0
S199 RG1 N905 4.0100 76.2 217.0 5.88 0
S200 RG1 N894 0.5600 82.4 98.7 6.41 0
S201 RG1 N1011 17.4600 81.2 390.9 5.22 0
S202 RG1 N5132 10.3000 81.7 316.5 5.73 0
S203 RG1 N4931 0.1700 85.0 61.3 6.16 0
S204 RG1 N1429 15.1800 76.4 369.6 5.24 0
S205 RG1 N1406 5.3600 80.7 243.7 4.18 0
S206 RG1 N5024 16.6700 80.4 383.7 5.24 0
S207 RG1 N468 50.3300 73.7 596.9 7.20 0
S208 RG1 N4928 6.0000 67.0 255.0 7.22 0
S209 RG1 N4997 11.3400 85.0 328.9 3.87 0
S211 RG1 N869 10.0000 48.8 312.8 6.07 0
S212 RG1 N1359 1.4000 63.6 142.4 8.47 0
S213 RG1 N1101 7.7900 81.8 283.0 5.29 0
S214 RG1 N1100 5.8700 76.1 252.7 9.33 0
S215 RG1 N1338 5.9700 69.1 254.4 5.30 0
S216 RG1 N1347 2.3500 47.6 175.2 6.52 0
S217 RG1 N1365 4.8800 82.0 234.7 4.23 0
S218 RG1 N1249 7.7800 73.1 282.9 4.82 0
S220 RG1 N1324 0.4500 38.7 90.5 6.61 0
S221 RG1 N5492 5.1700 74.6 240.2 5.17 0
S223 RG1 N791 6.6900 82.2 266.3 7.03 0
S224 RG1 N5042 7.6500 80.4 281.0 6.92 0
S225 RG1 N5034 1.5500 70.6 148.4 9.43 0
S226 RG1 N1225 9.0400 75.0 300.4 6.09 0
S227 RG1 N1183 13.1700 72.9 349.2 6.20 0
S228 RG1 N604 5.0100 82.1 237.2 8.48 0
S229 RG1 N763 0.3000 66.2 76.9 9.63 0
S230 RG1 N760 6.8200 65.6 268.4 5.49 0
S231 RG1 N1466 0.2700 87.1 73.7 6.25 0
S232 RG1 N712 15.5300 65.6 373.0 7.12 0
S233 RG1 N1584 10.2000 83.0 315.2 3.87 0
S234 RG1 N926 8.1100 80.2 287.6 5.86 0
S235 RG1 N5118 4.9400 83.0 235.9 4.47 0
S236 RG1 N761 1.5300 75.1 147.6 11.01 0
S237 RG1 N764 6.1200 73.9 257.0 8.27 0
S238 RG1 N653 6.3200 74.7 260.3 6.27 0
S239 RG1 N4924 16.4800 62.8 381.9 7.41 0
S240 RG1 N1406 2.1600 81.2 169.4 3.75 0
S241 RG1 N5479 11.5200 75.7 331.0 5.87 0
S242 RG1 N5620 6.7200 82.7 266.8 4.92 0
S243 RG1 N889 6.5000 64.7 263.3 8.52 0
S244 RG1 N955 5.7400 73.9 250.5 6.37 0
S245 RG1 N5120 7.2800 83.1 275.5 5.08 0
S246 RG1 N5108 8.7700 82.2 296.8 4.96 0
S247 RG1 N726 6.7300 60.2 266.9 7.17 0
S248 RG1 N472 15.8300 71.9 375.8 7.44 0
S249 RG1 N728 1.0800 80.0 128.4 8.01 0
S250 RG1 N871 9.4800 55.7 306.1 7.53 0
S251 RG1 N868 1.0500 56.3 127.0 8.86 0
S252 RG1 N974 9.5100 80.1 306.5 5.81 0
S253 RG1 N1249 4.2800 52.6 222.7 7.77 0
S254 RG1 N863 5.8800 34.1 252.9 6.66 0
S255 RG1 N656 4.7400 82.0 232.0 6.23 0
S256 RG1 N4917 12.0700 71.9 337.2 7.11 0
S257 RG1 N861 1.4400 60.6 144.1 9.43 0
S258 RG1 N1391 5.0900 73.5 238.7 4.02 0
S259 RG1 N1461 11.6600 80.5 332.6 4.91 0
S260 RG1 N862 9.2500 66.2 303.2 7.09 0
S261 RG1 N5604 5.1100 84.0 239.1 4.70 0
S262 RG1 N5613 4.2800 84.5 222.7 4.56 0
S263 RG1 N5137 18.0500 81.1 396.1 5.64 0
S264 RG1 N1108 10.0500 81.6 313.4 8.02 0
S265 RG1 N703 11.2300 69.9 327.6 6.10 0
S266 RG1 N728 8.3000 71.7 290.3 9.06 0
S268 RG1 N5432 4.2800 83.3 222.7 4.08 0
S269 RG1 N1571 1.0300 29.1 126.0 5.29 0
S270 RG1 N1576 17.8700 80.3 394.5 5.10 0
S272 RG1 N5433 0.4200 80.6 88.0 5.27 0
S273 RG1 N484 8.7100 77.6 295.9 8.36 0
S274 RG1 N482 5.3100 80.5 242.8 7.95 0
S275 RG1 N805 7.4800 73.9 278.5 7.56 0
S276 RG1 N4965 13.8100 75.7 355.9 9.63 0
S277 RG1 N732 5.3400 63.5 243.3 5.55 0
S278 RG1 N1231 11.4000 67.5 329.6 8.28 0
S279 RG1 N863 4.4900 70.7 227.0 9.30 0
S280 RG1 N916 4.1200 51.8 219.4 7.71 0
S281 RG1 N5435 4.0500 67.4 217.9 4.24 0
S282 RG1 N1231 4.4200 80.0 225.6 4.56 0
S283 RG1 N805 1.6700 84.9 152.9 8.00 0
S284 RG1 N803 5.8600 75.8 252.6 7.02 0
S285 RG1 N5623 9.8600 82.1 311.0 4.69 0
S286 RG1 N5594 2.0500 78.7 165.9 6.15 0
S287 RG1 N5595 7.0800 84.2 272.4 5.95 0
S288 RG1 N5626 20.9300 68.0 420.3 6.32 0
S289 RG1 N5051 17.6200 60.0 392.3 7.28 0
S290 RG1 N1261 9.1100 65.1 301.3 4.04 0
S291 RG1 N935 4.3500 68.1 224.2 7.02 0
S292 RG1 N962 10.4300 76.6 318.1 7.01 0
S293 RG1 N1245 3.1500 69.0 197.0 7.94 0
S294 RG1 N861 4.0900 64.2 218.7 10.13 0
S295 RG1 N5176 7.6200 84.9 280.5 4.28 0
S296 RG1 N5185 12.9400 78.7 346.7 8.31 0
S297 RG1 N5237 7.4800 80.1 278.5 6.51 0
S298 RG1 N4935 2.1700 75.9 169.7 8.83 0
S299 RG1 N634 10.6200 72.5 320.4 6.10 0
S300 RG1 N5146 10.7600 73.9 322.1 6.87 0
S301 RG1 N5171 12.1900 79.8 338.5 6.58 0
S302 RG1 N5197 5.3500 73.3 243.5 6.86 0
S303 RG1 N4935 2.5300 80.4 180.5 7.35 0
S304 RG1 N633 2.0800 75.9 166.9 6.59 0
S305 RG1 N780 9.5200 79.5 306.7 5.48 0
S306 RG1 N748 8.2900 81.9 290.2 6.38 0
S307 RG1 N1177 4.5200 71.1 227.6 4.19 0
S308 RG1 N1177 0.8600 10.3 117.2 6.65 0
S309 RG1 N1251 9.7600 84.2 309.7 3.01 0
S310 RG1 N1095 8.0700 80.4 287.0 8.10 0
S311 RG1 N1248 22.7900 70.1 434.8 5.73 0
S312 RG1 N1015 1.6900 82.1 153.6 5.53 0
S313 RG1 N5232 0.0300 85.0 30.0 5.54 0
S314 RG1 N5220 8.5000 67.8 293.1 9.99 0
S315 RG1 N741 0.0600 63.8 40.4 6.41 0
S316 RG1 N737 4.7500 72.8 232.2 5.63 0
S317 RG1 N859 7.9000 62.8 284.6 8.44 0
S318 RG1 N5259 18.9600 81.8 404.0 5.64 0
S319 RG1 N5232 0.2000 85.0 65.4 8.75 0
S320 RG1 N6648 8.0300 49.3 286.5 8.91 0
S321 RG1 N698 5.6400 58.5 248.7 6.04 0
S322 RG1 N811 5.5400 55.5 246.9 6.22 0
S323 RG1 N4989 14.3700 84.4 361.6 4.07 0
S324 RG1 N4950 4.0400 53.0 217.6 7.65 0
S325 RG1 N4975 6.0500 72.3 255.8 9.54 0
S326 RG1 N718 27.8200 73.1 470.9 6.68 0
S327 RG1 N5553 8.6100 84.5 294.6 5.79 0
S328 RG1 N662 9.8600 77.6 311.0 6.31 0
S329 RG1 N734 4.3300 60.0 223.8 9.02 0
S330 RG1 N777 6.3300 69.0 260.5 7.18 0
S332 RG1 N1177 0.7000 69.7 108.0 4.40 0
S334 RG1 N5242 10.3700 82.8 317.3 5.60 0
S335 RG1 N5262 0.6300 85.0 103.5 7.97 0
S336 RG1 N5444 4.7000 80.8 231.2 3.74 0
S337 RG1 N689 4.7500 48.9 232.2 9.24 0
S338 RG1 N629 5.3500 61.9 243.5 7.22 0
S339 RG1 N697 2.4400 82.5 177.9 6.33 0
S340 RG1 N696 5.1800 79.1 240.4 6.18 0
S341 RG1 N5153 9.4900 83.9 306.3 4.39 0
S342 RG1 N694 0.3400 82.6 80.9 6.46 0
S343 RG1 N5164 12.5300 82.8 342.3 4.57 0
S344 RG1 N625 2.6000 68.5 182.5 4.87 0
S345 RG1 N5155 3.0500 77.4 194.5 4.75 0
S346 RG1 N5148 5.0600 84.0 238.2 5.58 0
S347 RG1 N5187 5.5800 70.4 247.7 5.44 0
S348 RG1 N5233 3.3600 71.1 202.2 6.23 0
S349 RG1 N5201 4.6400 77.3 230.0 4.34 0
S350 RG1 N1536 11.4500 79.3 330.2 6.42 0
S351 RG1 N5520 5.0600 83.1 238.2 4.15 0
S352 RG1 N1177 4.4900 77.2 227.0 4.68 0
S353 RG1 N681 8.1100 73.9 287.6 8.46 0
S354 RG1 N812 6.7300 81.0 266.9 4.88 0
S355 RG1 N5193 0.5100 85.1 95.1 5.76 0
S356 RG1 N802 4.7800 85.0 232.8 4.98 0
S357 RG1 N802 4.8900 84.7 234.9 6.64 0
S358 RG1 N6683 6.5700 83.6 264.4 5.94 0
S359 RG1 N5227 3.2600 83.2 199.8 6.88 0
S360 RG1 N5212 5.6900 80.8 249.6 6.49 0
S361 RG1 N1253 3.6800 83.0 209.7 4.67 0
S363 RG1 N1260 1.2400 54.9 135.7 8.09 0
S364 RG1 N1260 8.2200 61.1 289.2 7.72 0
S365 RG1 N1242 4.9900 81.6 236.8 5.54 0
S366 RG1 N5590 7.3600 84.1 276.7 5.13 0
S367 RG1 N1177 5.5900 84.2 247.8 3.84 0
S368 RG1 N1260 5.8400 69.5 252.2 6.79 0
S369 RG1 N1260 1.3100 22.6 138.7 6.40 0
S371 RG1 N6667 2.9400 82.5 191.7 5.92 0
S372 RG1 N6674 7.9200 82.5 284.9 5.75 0
S373 RG1 N1271 6.2900 79.7 259.8 5.24 0
S375 RG1 N1293 4.7000 74.6 231.2 5.95 0
S376 RG1 N4900 7.4900 69.4 278.6 8.28 0
S377 RG1 N630 5.3400 71.4 243.3 8.25 0
S378 RG1 N1178 14.6700 45.6 364.6 11.60 0
S379 RG1 N686 9.1300 70.6 301.6 6.16 0
S380 RG1 N677 4.8200 70.0 233.6 8.79 0
S381 RG1 N1241 5.0800 80.1 238.5 6.95 0
S386 RG1 N1506 14.0000 83.4 357.8 3.77 0
S388 RG1 N1499 5.6000 41.4 248.0 4.73 0
S390 RG1 N6552 4.2700 68.1 222.5 5.81 0
S391 RG1 N1246 10.0300 84.0 313.1 4.96 0
S392 RG1 N1317 5.8100 81.0 251.7 4.59 0
S394 RG1 N5182 5.1100 84.7 239.1 3.40 0
S395 RG1 N1263 13.3900 75.7 351.5 7.21 0
S396 RG1 N6604 7.4400 64.8 277.9 11.14 0
S397 RG1 N1317 3.0900 85.1 195.5 2.83 0
S398 RG1 N4938 4.0400 15.7 217.6 10.49 0
S399 RG1 N4951 9.9500 48.5 312.1 8.89 0
S400 RG1 N1314 4.1100 83.0 219.1 6.80 0
S401 RG1 N4893 4.1500 59.6 220.0 6.48 0
S402 RG1 N5429 8.9400 76.8 299.0 3.97 0
S403 RG1 N1475 1.1700 24.2 132.6 9.22 0
S404 RG1 N1269 9.7600 72.6 309.7 5.76 0
S405 RG1 N1270 7.2300 82.8 274.7 5.83 0
S406 RG1 N5586 7.0900 81.4 272.6 4.18 0
S407 RG1 N6689 4.4500 82.3 226.2 6.75 0
S408 RG1 N4884 4.7500 43.8 232.2 8.99 0
S409 RG1 N795 12.4400 78.3 341.3 5.70 0
S410 RG1 N5541 18.5700 77.0 400.6 5.74 0
S411 RG1 N6655 8.5400 78.6 293.6 6.34 0
S412 RG1 N5159 6.3100 80.2 260.1 4.58 0
S413 RG1 N6651 8.0200 52.4 286.3 9.15 0
S414 RG1 N1305 2.6900 81.9 185.0 6.62 0
S415 RG1 N5205 2.3700 30.6 175.8 10.38 0
S418 RG1 N1229 3.1900 45.4 198.0 10.35 0
S419 RG1 N1257 6.3600 77.6 261.0 4.69 0
S420 RG1 N5516 14.8400 82.5 366.2 4.37 0
S421 RG1 N5559 7.0300 67.2 271.6 6.23 0
S422 RG1 N1277 0.9900 84.1 124.0 6.32 0
S423 RG1 N4938 1.2800 20.9 137.4 10.33 0
S424 RG1 N5199 5.3800 77.0 244.1 9.10 0
S425 RG1 N5202 8.0100 76.7 286.2 7.28 0
S426 RG1 N6699 7.0500 31.1 271.9 10.40 0
S427 RG1 N1268 13.1500 79.6 349.0 5.54 0
S428 RG1 N1277 0.2300 85.0 69.2 4.60 0
S429 RG1 N1280 5.2000 81.3 240.8 5.33 0
S430 RG1 N4955 23.9200 68.8 443.3 7.66 0
S431 RG1 N4880 4.7100 54.2 231.4 7.72 0
S432 RG1 N4908 5.5100 28.1 246.4 6.84 0
S436 RG1 N6764 0.2200 9.3 67.9 10.61 0
S437 RG1 N6700 6.6400 72.3 265.5 6.10 0
S438 RG1 N6766 4.6700 63.9 230.6 6.04 0
S439 RG1 N5498 8.1900 68.9 288.7 5.67 0
S440 RG1 N5580 3.0000 79.0 193.2 6.03 0
S441 RG1 N664 7.2800 66.4 275.5 8.50 0
S442 RG1 N4943 1.5000 19.8 146.4 12.49 0
S443 RG1 N618 4.3700 53.7 224.6 8.01 0
S444 RG1 N814 8.1100 71.7 287.6 6.24 0
S445 RG1 N821 10.6600 78.0 320.9 5.93 0
S446 RG1 N6552 5.8900 80.9 253.1 6.70 0
S447 RG1 N1264 6.7500 66.1 267.3 8.41 0
S448 RG1 N1315 0.1700 85.0 61.3 5.82 0
S449 RG1 N1311 15.6200 83.3 373.8 4.47 0
S450 RG1 N1322 5.0200 75.1 237.4 6.76 0
S451 RG1 N1304 16.2000 79.4 379.3 6.01 0
S452 RG1 N821 1.5700 77.2 149.1 8.83 0
S453 RG1 N1279 5.7600 83.3 250.8 4.98 0
S454 RG1 N1312 6.9700 84.9 270.7 5.33 0
S455 RG1 N6816 6.5500 78.6 264.1 6.36 0
S456 RG1 N6763 0.2900 51.1 75.9 11.10 0
S457 RG1 N839 17.8400 76.1 394.2 6.25 0
S458 RG1 N4895 5.5700 35.0 247.5 9.24 0
S459 RG1 N841 8.1500 57.8 288.2 5.42 0
S460 RG1 N5573 0.8400 32.6 116.1 13.19 0
S461 RG1 N5573 0.3700 1.6 83.7 9.37 0
S462 RG1 N6763 0.4400 62.5 89.7 7.60 0
S464 RG1 N1473 6.3200 73.7 260.3 5.65 0
S465 RG1 N5579 3.0100 72.4 193.5 6.91 0
S466 RG1 N826 11.5700 79.5 331.5 5.65 0
S467 RG1 N1476 8.0300 69.5 286.5 9.79 0
S468 RG1 N1735 4.1000 30.1 218.9 6.08 0
S469 RG1 N1290 1.9400 56.7 162.3 7.79 0
S470 RG1 N1291 2.2500 78.9 172.2 6.66 0
S471 RG1 N6638 24.4200 47.8 447.0 8.70 0
S472 RG1 N671 14.8500 66.2 366.3 8.61 0
S473 RG1 N822 0.8600 20.7 117.2 12.44 0
S474 RG1 N822 1.3200 50.7 139.1 8.37 0
S475 RG1 N6835 1.1400 82.4 131.2 8.77 0
S476 RG1 N822 0.9800 79.4 123.5 5.96 0
S477 RG1 N6805 0.1300 9.1 55.1 12.37 0
S478 RG1 N5578 13.0300 65.3 347.7 6.14 0
S479 RG1 N5572 4.1500 37.5 220.0 9.52 0
S480 RG1 N6805 1.5500 52.4 148.4 7.04 0
S481 RG1 N6806 4.5800 56.3 228.8 6.64 0
S482 RG1 N5497 21.6000 68.3 425.6 5.77 0
S483 RG1 N825 15.7000 75.8 374.6 5.17 0
S485 RG1 N1290 1.0900 56.1 128.9 9.07 0
S486 RG1 N1278 5.7500 76.8 250.7 5.72 0
S487 RG1 N6821 13.1300 39.8 348.7 8.57 0
S490 RG1 N5205 4.2900 12.0 222.9 8.81 0
S491 RG1 N6711 11.4000 53.7 329.6 5.96 0
S492 RG1 N616 4.6300 78.2 229.8 7.27 0
S493 RG1 N6810 4.1200 76.8 219.4 6.26 0
S494 RG1 N663 3.7100 79.2 210.4 6.31 0
S495 RG1 N6842 0.4200 47.9 88.0 9.47 0
S496 RG1 N828 6.9400 38.1 270.2 8.17 0
S497 RG1 N6770 4.8100 20.8 233.4 10.17 0
S498 RG1 N6681 16.2100 72.6 379.4 7.08 0
S499 RG1 N6760 0.3600 2.7 82.7 11.81 0
S500 RG1 N611 0.9000 83.4 119.4 7.35 0
S501 RG1 N1636 18.5300 53.6 400.3 6.42 0
S502 RG1 N6846 7.2800 66.8 275.5 5.38 0
S503 RG1 N6853 1.7900 22.6 157.2 6.85 0
S505 RG1 N6838 7.6800 60.0 281.4 6.38 0
S506 RG1 N6820 9.5500 74.4 307.0 6.10 0
S507 RG1 N1624 9.8800 68.7 311.2 7.57 0
S510 RG1 N6760 0.5900 32.1 100.8 10.16 0
S511 RG1 N1749 15.7900 57.1 375.5 9.61 0
S512 RG1 N5680 0.8800 14.0 118.3 10.10 0
S513 RG1 N4886 4.6100 31.6 229.4 9.96 0
S514 RG1 N5579 7.6300 65.4 280.7 8.92 0
S515 RG1 N6610 7.3700 77.8 276.8 4.69 0
S516 RG1 N6554 7.4700 84.8 278.3 5.05 0
S518 RG1 N1733 13.7300 62.8 355.0 8.74 0
S519 RG1 N1742 5.5600 61.5 247.3 6.83 0
S521 RG1 N6760 0.5300 20.6 96.6 14.04 0
S523 RG1 N6557 11.2200 37.7 327.5 5.26 0
S524 RG1 N1632 5.8500 72.6 252.4 4.22 0
S525 RG1 N5680 3.2800 23.4 200.2 7.85 0
S526 RG1 N5680 5.0400 7.1 237.8 5.24 0
S527 RG1 N6760 0.4900 73.8 93.6 12.76 0
S528 RG1 N6636 1.1800 19.6 133.0 7.59 0
S529 RG1 N6636 0.2500 16.4 71.5 9.97 0
S530 RG1 N842 6.1300 43.9 257.2 7.88 0
S531 RG1 N6647 4.3400 21.5 224.0 7.04 0
S532 RG1 N4883 17.4700 43.2 390.9 8.06 0
S533 RG1 N610 7.6800 59.3 281.4 8.79 0
S534 RG1 N6836 14.9300 49.9 367.1 5.92 0
S535 RG1 N6636 0.6300 7.5 103.5 7.61 0
S536 RG1 N842 0.4100 18.2 87.2 8.80 0
S537 RG1 N6609 3.2600 76.3 199.8 5.80 0
S538 RG1 N6760 0.0200 0.0 20.0 6.74 0
S539 RG1 N1626 11.3500 79.9 329.0 6.38 0
S540 RG1 N6565 23.3700 77.9 439.2 5.11 0
S541 RG1 N1619 7.2200 74.7 274.5 4.95 0
S542 RG1 N5739 12.8000 43.3 345.2 11.02 0
S543 RG1 N5678 4.7500 39.9 232.2 7.76 0
S546 RG1 N6851 3.7200 9.2 210.6 4.65 0
S547 RG1 N1290 9.5000 58.8 306.4 8.28 0
S548 RG1 N1278 6.4700 80.9 262.8 4.55 0
S549 RG1 N6856 10.3900 67.8 317.6 7.04 0
S550 RG1 N6553 19.1000 71.0 405.2 5.77 0
S552 RG1 N6847 2.7000 74.0 185.2 5.56 0
S553 RG1 N6856 0.9600 7.9 122.5 5.39 0
S554 RG1 N6802 5.4200 57.9 244.8 6.89 0
S555 RG1 N6790 0.6200 3.5 102.8 8.74 0
S556 RG1 N6790 4.3900 60.2 225.0 8.19 0
S557 RG1 N6722 6.2600 77.9 259.3 4.71 0
S558 RG1 N6783 9.6400 63.3 308.2 5.51 0
S559 RG1 N4974 4.0100 46.0 217.0 6.47 0
S560 RG1 N4877 0.5800 85.0 100.1 3.50 0
S561 RG1 N1304 7.0600 79.6 272.1 7.81 0
S562 RG1 N1302 15.5100 68.5 372.8 7.38 0
S563 RG1 N6790 0.4500 25.3 90.5 7.58 0
S564 RG1 N6854 13.2100 44.3 349.6 6.06 0
S565 RG1 N6787 4.3800 56.7 224.8 7.95 0
S566 RG1 N6787 5.0700 48.0 238.3 5.00 0
S567 RG1 N5672 7.4300 17.1 277.7 7.47 0
S568 RG1 N5702 6.8000 57.7 268.0 5.00 0
S569 RG1 N6634 0.5500 61.0 98.0 5.35 0
S570 RG1 N5686 3.2500 30.9 199.5 7.34 0
S571 RG1 N6645 3.1300 17.7 196.5 8.89 0
S572 RG1 N6640 8.7600 36.6 296.6 7.28 0
S573 RG1 N4877 2.5200 49.4 180.2 6.36 0
S574 RG1 N5684 7.4300 18.7 277.7 8.72 0
S575 RG1 N1734 5.2100 55.7 241.0 8.52 0
S576 RG1 N1313 5.5400 85.0 246.9 5.02 0
S577 RG1 N1624 7.5600 54.1 279.6 5.39 0
S579 RG1 N6680 0.0700 11.4 43.0 2.75 0
S580 RG1 N6680 4.2000 29.8 221.1 10.01 0
S581 RG1 N1679 15.5700 79.8 373.4 5.30 0
S582 RG1 N6793 4.0100 42.7 217.0 4.74 0
S584 RG1 N1308 3.8200 63.6 212.8 6.75 0
S585 RG1 N6593 10.0900 44.2 313.9 6.15 0
S586 RG1 N6634 0.2800 18.7 74.8 13.00 0
S587 RG1 N6760 13.9500 45.7 357.3 11.19 0
S588 RG1 N5694 1.2400 13.3 135.7 2.30 0
S590 RG1 N6614 8.4500 33.3 292.4 6.62 0
S591 RG1 N6633 3.9600 67.3 215.9 7.80 0
S592 RG1 N6634 2.0100 37.0 164.6 9.95 0
S593 RG1 N6734 0.5300 27.4 96.6 11.19 0
S594 RG1 N6596 2.1800 57.0 170.1 4.45 0
S595 RG1 N6583 2.7900 37.8 187.7 10.24 0
S596 RG1 N1299 4.5100 83.9 227.4 6.26 0
S597 RG1 N1303 7.0600 82.2 272.1 5.38 0
S598 RG1 N1295 3.8600 65.9 213.7 8.23 0
S599 RG1 N6634 0.6200 14.7 102.8 10.15 0
S600 RG1 N6597 10.8900 51.0 323.6 6.34 0
S601 RG1 N6731 6.2600 81.8 259.3 4.98 0
S602 RG1 N5694 4.9800 23.9 236.6 5.86 0
S603 RG1 N5689 12.3300 40.9 340.1 4.48 0
S604 RG1 N1313 7.6600 64.8 281.1 5.74 0
S605 RG1 N6680 1.0200 58.5 125.5 11.22 0
S606 RG1 N6686 11.0000 46.1 324.9 6.64 0
S607 RG1 N6566 4.0300 51.4 217.4 4.96 0
S608 RG1 N6583 0.7200 16.4 109.2 11.78 0
S610 RG1 N6680 0.4700 78.8 92.1 7.46 0
S611 RG1 N1637 9.0000 40.5 299.8 7.55 0
S612 RG1 N6566 2.5000 40.3 179.6 4.59 0
S613 RG1 N6634 0.8800 29.4 118.3 9.78 0
S614 RG1 N1295 5.1200 83.1 239.3 8.30 0
S615 RG1 N1638 4.0300 70.4 217.4 5.95 0
S616 RG1 N6613 1.6600 73.4 152.5 4.90 0
S617 RG1 N6599 0.8200 75.3 115.0 5.00 0
S618 RG1 N6679 17.8000 69.6 393.9 6.13 0
S620 RG1 N6606 6.9100 58.7 269.8 7.43 0
S621 RG1 N6632 0.2000 57.8 65.4 11.80 0
S622 RG1 N6795 6.1200 66.3 257.0 6.41 0
S623 RG1 N6582 7.4200 58.2 277.6 7.02 0
S624 RG1 N6620 1.5100 34.1 146.8 13.56 0
S625 RG1 N6734 0.6200 41.3 102.8 4.02 0
S626 RG1 N1594 4.2100 76.0 221.3 5.11 0
S627 RG1 N1639 2.6000 29.0 182.5 6.56 0
S628 RG1 N5733 5.5600 33.0 247.3 5.43 0
S629 RG1 N6620 4.6900 80.8 231.0 8.09 0
S630 RG1 N6772 7.4800 66.1 278.5 6.07 0
S632 RG1 N6782 8.0400 56.7 286.6 6.75 0
S633 RG1 N5688 5.7100 23.2 250.0 4.70 0
S634 RG1 N6571 3.4800 14.0 205.0 5.18 0
S635 RG1 N6551 7.0000 83.9 271.2 5.98 0
S636 RG1 N6616 1.5600 81.3 148.7 7.62 0
S637 RG1 N1296 2.5400 63.1 180.8 5.98 0
S638 RG1 N6556 19.1800 77.9 405.8 5.85 0
S639 RG1 N6606 10.9800 44.9 324.7 8.01 0
S640 RG1 N1296 0.7500 22.2 111.0 8.50 0
S641 RG1 N6629 10.0200 37.3 313.0 9.17 0
S642 RG1 N6624 0.5800 13.1 100.1 7.50 0
S643 RG1 N6616 4.2300 76.4 221.7 7.61 0
S645 RG1 N6586 4.8600 40.8 234.3 5.17 0
S646 RG1 N6601 9.4100 70.5 305.2 6.53 0
S647 RG1 N1296 2.6700 65.9 184.4 9.51 0
S649 RG1 N6782 0.1700 0.0 61.3 3.75 0
S650 RG1 N1296 5.1300 37.5 239.5 8.61 0
S651 RG1 N1296 0.5200 29.7 95.9 11.15 0
S652 RG1 N6782 0.0200 0.0 20.0 5.91 0
S653 RG1 N6782 1.4300 60.8 143.7 5.90 0
S654 RG1 N6617 8.6300 67.2 294.9 7.90 0
S655 RG1 N6645 0.5200 9.9 95.9 6.76 0
S656 RG1 N1714 7.3700 60.4 276.8 4.55 0
S657 RG1 N1676 5.8400 62.7 252.2 4.60 0
S658 RG1 N5668 7.5300 41.4 279.2 4.82 0
S659 RG1 N5685 3.0900 11.0 195.5 6.41 0
S660 RG1 N1641 0.5000 67.7 94.4 6.79 0
S661 RG1 N5670 13.1800 36.8 349.3 6.32 0
S663 RG1 N6550 4.4300 79.6 225.8 5.50 0
S664 RG1 N6616 0.9300 83.8 120.9 9.18 0
S665 RG1 N6573 8.4100 62.8 291.8 6.68 0
S666 RG1 N6666 17.7200 23.6 393.2 5.34 0
S668 RG1 N6573 5.8500 82.7 252.4 8.59 0
S669 RG1 N6624 3.6600 19.1 209.2 6.54 0
S670 RG1 N6624 0.0400 0.0 34.4 0.30 0
S671 RG1 N6624 0.0400 0.0 34.4 6.51 0
S673 RG1 N6624 0.0400 0.6 34.4 1.58 0
S674 RG1 N6624 0.0200 0.0 20.0 6.95 0
S675 RG1 N6740 5.0500 83.0 238.0 5.64 0
S676 RG1 N6834 14.2100 73.5 359.9 6.52 0
S677 RG1 N6786 5.9700 37.6 254.4 6.09 0
S678 RG1 N1644 14.6500 49.8 364.4 6.59 0
S679 RG1 N5654 4.1700 25.2 220.4 3.80 0
S680 RG1 N5655 1.0600 20.8 127.4 5.46 0
S681 RG1 N6622 3.8600 67.1 213.7 6.50 0
S683 RG1 N6746 2.6600 84.2 184.1 4.30 0
S684 RG1 N6837 12.0500 67.1 337.0 8.73 0
S685 RG1 N1703 8.6000 70.3 294.4 5.22 0
S687 RG1 N6788 9.2800 35.9 303.5 6.26 0
S688 RG1 N6662 7.7300 71.9 282.1 7.18 0
S690 RG1 N6571 4.1700 71.3 220.4 8.27 0
S692 RG1 N6723 13.6900 74.0 354.6 6.05 0
S693 RG1 N6744 7.2600 23.8 275.2 8.02 0
S694 RG1 N6786 0.6000 11.9 101.5 5.64 0
S696 RG1 N6617 0.2700 70.6 73.7 4.85 0
S697 RG1 N6617 15.6100 46.9 373.7 9.02 0
S699 RG1 N6592 5.5400 45.6 246.9 5.09 0
S700 RG1 N6585 13.2400 31.7 349.9 6.19 0
S701 RG1 N6859 0.0600 23.3 40.4 9.65 0
S702 RG1 N6859 0.0500 50.0 37.6 3.73 0
S703 RG1 N5673 5.8600 28.0 252.6 6.53 0
S704 RG1 N5656 1.0500 50.3 127.0 3.79 0
S706 RG1 N5734 9.3400 77.1 304.3 5.80 0
S707 RG1 N6574 12.9500 78.4 346.8 6.92 0
S708 RG1 N6573 0.0300 85.0 30.0 2.16 0
S709 RG1 N6756 2.5900 8.1 182.2 6.17 0
S710 RG1 N5659 2.1200 64.8 168.2 3.59 0
S712 RG1 N220 22.9400 39.4 436.0 9.17 0
S714 RG1 N6579 2.2400 76.0 171.9 8.76 0
S715 RG1 N6568 0.0800 68.5 45.3 11.70 0
S716 RG1 N6584 13.8400 66.3 356.2 8.01 0
S717 RG1 N6743 5.3900 18.2 244.3 6.27 0
S718 RG1 N5738 11.3000 67.4 328.4 7.70 0
S720 RG1 N6873 0.0900 39.4 47.5 2.77 0
S721 RG1 N6568 6.5700 33.9 264.4 6.57 0
S722 RG1 N6568 2.2500 72.3 172.2 9.39 0
S723 RG1 N5643 4.9300 40.2 235.7 4.39 0
S724 RG1 N5659 0.3500 49.4 81.8 2.23 0
S725 RG1 N6696 1.2400 16.1 135.7 7.04 0
S726 RG1 N6627 4.0300 45.8 217.4 7.56 0
S727 RG1 N1658 12.7500 38.5 344.7 4.63 0
S728 RG1 N1667 1.4200 22.5 143.3 5.96 0
S729 RG1 N5638 11.9800 20.4 336.2 6.24 0
S730 RG1 N5641 0.4200 25.5 88.0 3.09 0
S731 RG1 N5718 10.6000 45.2 320.1 6.08 0
S732 RG1 N241 0.3900 41.3 85.4 9.73 0
S733 RG1 N5715 7.6200 34.3 280.5 3.74 0
S735 RG1 N6693 4.1500 36.1 220.0 6.17 0
S736 RG1 N6618 24.0600 14.2 444.3 7.00 0
S738 RG1 N6625 0.2000 5.0 65.4 7.08 0
S739 RG1 N6625 4.9700 49.4 236.5 6.43 0
S741 RG1 N6684 5.4200 51.1 244.8 7.22 0
S742 RG1 N6623 1.5200 19.9 147.2 6.71 0
S743 RG1 N241 2.6100 51.2 182.8 8.24 0
S745 RG1 N6579 1.1400 44.7 131.2 11.13 0
S746 RG1 N6578 7.8400 72.9 283.7 5.37 0
S747 RG1 N1713 5.8500 50.6 252.4 4.34 0
S749 RG1 N5637 0.7900 36.5 113.3 2.93 0
S750 RG1 N6877 31.6000 44.0 495.5 7.41 0
S752 RG1 N1667 4.7300 32.8 231.8 6.21 0
S753 RG1 N5644 9.0500 8.8 300.5 6.14 0
S754 RG1 N5637 11.4000 55.7 329.6 5.14 0
S755 RG1 N6717 8.3500 76.4 291.0 6.95 0
S756 RG1 N229 6.9400 50.0 270.2 9.34 0
S757 RG1 N6622 6.4800 50.7 262.9 7.05 0
S758 RG1 N241 1.5900 36.4 149.9 7.03 0
S760 RG1 N6570 4.0400 71.0 217.6 6.27 0
S761 RG1 N5812 5.0100 67.1 237.2 9.38 0
S762 RG1 N6603 5.5800 58.0 247.7 6.89 0
S763 RG1 N6603 3.4100 65.7 203.4 5.70 0
S764 RG1 N6756 5.0200 23.5 237.4 6.62 0
S765 RG1 N6750 13.0400 23.4 347.8 8.24 0
S766 RG1 N226 17.2300 60.2 388.8 7.12 0
S767 RG1 N344 7.6300 59.1 280.7 9.26 0
S768 RG1 N1713 4.7300 14.9 231.8 4.31 0
S769 RG1 N1712 4.7300 17.7 231.8 4.45 0
S772 RG1 N6618 6.0800 16.3 256.3 7.27 0
S775 RG1 N6719 10.0600 50.4 313.5 7.14 0
S776 RG1 N6757 2.2000 57.0 170.7 10.83 0
S778 RG1 N1722 14.7400 20.2 365.3 3.27 0
S779 RG1 N6643 4.6900 27.2 231.0 8.45 0
S780 RG1 N6685 25.7600 33.6 456.6 7.57 0
S781 RG1 N25 4.4800 37.3 226.8 7.55 0
S782 RG1 N25 5.5600 18.4 247.3 6.06 0
S783 RG1 N6584 10.2200 47.5 315.5 7.74 0
S784 RG1 N24 7.7000 70.0 281.7 7.80 0
S785 RG1 N5848 0.9500 76.7 122.0 6.51 0
S786 RG1 N5848 1.6300 71.4 151.4 6.60 0
S788 RG1 N5709 0.9600 45.7 122.5 2.85 0
S793 RG1 N6603 0.2300 85.2 69.2 7.06 0
S794 RG1 N6572 11.0100 68.4 325.0 7.43 0
S796 RG1 N5812 8.7700 81.1 296.8 5.90 0
S799 RG1 N5776 6.2900 71.9 259.8 6.53 0
S803 RG1 N5849 0.1900 18.4 64.1 5.19 0
S804 RG1 N24 0.9700 60.9 123.0 7.82 0
S805 RG1 N25 0.1500 15.0 58.3 1.55 0
S806 RG1 N5709 6.3600 60.0 261.0 15.20 0
S807 RG1 N11 4.9300 72.6 235.7 7.94 0
S808 RG1 N24 5.8600 73.1 252.6 6.56 0
S810 RG1 N25 0.3000 15.0 76.9 1.75 0
S812 RG1 N234 6.2100 49.8 258.5 11.98 0
S813 RG1 N238 9.7800 70.7 310.0 8.15 0
S816 RG1 N5639 8.9600 29.2 299.3 11.30 0
S818 RG1 N5811 1.6000 74.9 150.3 3.87 0
S819 RG1 N5807 5.7300 66.1 250.3 5.03 0
S822 RG1 N6750 8.0100 35.2 286.2 8.77 0
S823 RG1 N6751 1.1600 46.2 132.1 7.93 0
S826 RG1 N5790 4.7500 83.7 232.2 7.01 0
S827 RG1 N5756 13.1400 83.3 348.9 5.16 0
S828 RG1 N6685 6.5800 35.7 264.5 7.66 0
S829 RG1 N11 18.9600 30.3 404.0 4.46 0
S836 RG1 N5818 7.9300 79.2 285.0 6.01 0
S837 RG1 N9 4.1000 83.4 218.9 6.10 0
S841 RG1 N342 26.1000 70.8 459.1 7.66 0
S842 RG1 N6866 4.5200 64.3 227.6 8.31 0
S846 RG1 N5759 5.4700 59.0 245.7 6.30 0
S849 RG1 N5759 0.2800 13.8 74.8 6.22 0
S850 RG1 N6752 5.6000 34.0 248.0 6.11 0
S851 RG1 N356 3.0000 69.9 193.2 6.53 0
S856 RG1 N6882 4.1000 76.2 218.9 7.00 0
S857 RG1 N6867 7.5600 71.7 279.6 4.77 0
S858 RG1 N6879 12.1300 56.7 337.9 5.83 0
S859 RG1 N326 4.1900 74.1 220.8 4.77 0
S860 RG1 N6880 8.0500 81.7 286.8 5.31 0
S861 RG1 N267 11.9000 77.9 335.3 5.84 0
S863 RG1 N1857 5.8000 49.8 251.5 6.78 0
S871 RG1 N1863 6.9500 83.4 270.4 4.36 0
S872 RG1 N5826 0.4900 83.9 93.6 5.14 0
S873 RG1 N317 1.8300 74.3 158.6 6.58 0
S874 RG1 N324 6.4000 76.0 261.6 7.53 0
S879 RG1 N5853 4.9700 82.8 236.5 5.77 0
S880 RG1 N5824 0.9400 85.1 121.5 4.43 0
S881 RG1 N255 12.9600 76.4 346.9 6.30 0
S882 RG1 N6865 4.9300 70.9 235.7 8.03 0
S886 RG1 N6779 16.3100 34.2 380.4 6.58 0
S889 RG1 N6754 10.9300 18.3 324.1 8.69 0
S890 RG1 N6883 1.2700 71.6 137.0 5.45 0
S893 RG1 N6893 0.1400 79.8 56.7 8.43 0
S894 RG1 N10 9.6200 82.9 307.9 3.96 0
S895 RG1 N6904 16.0300 69.5 377.7 7.26 0
S896 RG1 N4 13.8900 83.1 356.7 5.27 0
S897 RG1 N317 4.9100 42.3 235.3 8.47 0
S898 RG1 N321 2.1700 73.8 169.7 8.58 0
S899 RG1 N6896 4.3900 81.9 225.0 6.19 0
S909 RG1 N8 4.5300 81.8 227.8 4.00 0
S913 RG1 N6755 5.5000 24.9 246.2 7.31 0
S914 RG1 N322 3.0600 70.0 194.8 7.03 0
S915 RG1 N6924 12.0400 76.6 336.9 6.79 0
S917 RG1 N1870 4.6400 80.5 230.0 4.69 0
S918 RG1 N248 20.8600 76.3 419.7 6.35 0
S919 RG1 N1876 8.8300 79.4 297.6 4.78 0
S920 RG1 N1879 0.7500 43.9 111.0 7.26 0
S921 RG1 N1893 10.1700 78.1 314.9 7.23 0
S923 RG1 N299 9.3400 69.9 304.3 6.69 0
S924 RG1 N316 1.4200 63.2 143.3 8.92 0
S925 RG1 N316 0.7600 84.3 111.6 5.25 0
S927 RG1 N1 5.8800 65.0 252.9 6.47 0
S928 RG1 N5 5.1300 29.6 239.5 8.27 0
S933 RG1 N3342 6.5600 76.5 264.2 5.44 0
S942 RG1 N6780 7.4200 7.2 277.6 5.98 0
S944 RG1 N6912 7.9200 64.6 284.9 5.17 0
S945 RG1 N6916 4.3400 51.5 224.0 5.68 0
S947 RG1 N6898 7.4300 69.4 277.7 8.79 0
S949 RG1 N2151 5.7000 23.0 249.8 6.42 0
S950 RG1 N1850 12.1700 23.7 338.3 7.34 0
S951 RG1 N3310 6.8400 65.6 268.7 5.06 0
S952 RG1 N3335 7.2200 79.3 274.5 7.09 0
S958 RG1 N6917 2.9800 65.1 192.7 4.68 0
S961 RG1 N3341 1.8000 77.9 157.5 3.90 0
S964 RG1 N6917 7.9200 66.3 284.9 4.43 0
S966 RG1 N1848 12.4300 73.6 341.2 5.67 0
S969 RG1 N1887 6.9300 80.8 270.1 5.33 0
S972 RG1 N20 12.4600 26.5 341.5 8.13 0
S973 RG1 N14 0.2500 5.0 71.5 2.50 0
S974 RG1 N314 12.1400 64.3 338.0 7.31 0
S975 RG1 N3313 9.6700 25.6 308.6 8.69 0
S976 RG1 N3342 1.0500 83.1 127.0 3.87 0
S977 RG1 N2167 5.6500 74.9 248.9 6.66 0
S979 RG1 N6921 7.4300 82.1 277.7 5.28 0
S981 RG1 N5860 7.5600 81.9 279.6 4.83 0
S983 RG1 N3341 5.5900 80.9 247.8 5.50 0
S984 RG1 N3342 0.8600 85.2 117.2 10.76 0
S985 RG1 N3342 4.8300 84.4 233.8 5.65 0
S988 RG1 N1 6.3100 84.4 260.1 5.18 0
S989 RG1 N5 22.8600 73.3 435.3 4.61 0
S992 RG1 N2149 6.0900 77.1 256.5 5.95 0
S993 RG1 N1818 5.6000 76.6 248.0 5.25 0
S998 RG1 N1977 14.9300 52.2 367.1 3.55 0
S1006 RG1 N3331 4.6800 79.8 230.8 5.50 0
S1007 RG1 N3340 16.0900 75.4 378.3 5.00 0
S1010 RG1 N3333 17.2200 68.2 388.7 7.14 0
S1011 RG1 N3346 0.2400 63.8 70.4 5.24 0
S1012 RG1 N1992 13.0400 58.8 347.8 5.78 0
S1013 RG1 N3108 10.5000 83.2 318.9 4.45 0
S1014 RG1 N3118 2.4000 84.1 176.7 4.46 0
S1015 RG1 N2016 5.3300 80.0 243.2 5.97 0
S1016 RG1 N2004 0.4500 63.6 90.5 6.07 0
S1017 RG1 N2133 21.5100 62.1 424.9 6.33 0
S1018 RG1 N3309 13.7200 51.6 354.9 6.74 0
S1019 RG1 N3309 5.1200 60.5 239.3 7.12 0
S1020 RG1 N2141 1.9000 66.5 161.0 4.98 0
S1021 RG1 N2147 5.9000 70.4 253.2 5.73 0
S1024 RG1 N5859 4.3000 84.9 223.1 3.87 0
S1025 RG1 N1914 6.8200 83.9 268.4 4.27 0
S1026 RG1 N3123 4.2400 84.8 221.9 4.53 0
S1027 RG1 N3124 5.6200 85.0 248.4 4.22 0
S1033 RG1 N1919 0.5700 85.0 99.4 2.77 0
S1034 RG1 N1909 4.4800 82.9 226.8 3.74 0
S1035 RG1 N2081 1.3800 70.9 141.6 8.23 0
S1036 RG1 N2108 6.2600 81.5 259.3 4.49 0
S1038 RG1 N1985 5.6900 81.3 249.6 6.48 0
S1039 RG1 N284 15.0200 69.4 368.0 7.59 0
S1040 RG1 N292 11.3200 62.0 328.7 6.61 0
S1042 RG1 N1972 10.6100 76.8 320.3 4.63 0
S1044 RG1 N1763 6.0000 84.9 255.0 6.82 0
S1045 RG1 N1763 7.0300 66.8 271.6 7.52 0
S1047 RG1 N1973 4.6500 40.3 230.2 6.66 0
S1048 RG1 N1971 6.5800 68.1 264.5 5.28 0
S1049 RG1 N3124 1.6000 85.0 150.3 3.67 0
S1050 RG1 N3121 5.7800 84.6 251.2 5.67 0
S1051 RG1 N3305 5.6100 63.7 248.2 7.94 0
S1055 RG1 N2060 3.2500 84.9 199.5 5.33 0
S1057 RG1 N3307 9.7100 54.1 309.1 5.82 0
S1058 RG1 N3302 11.7300 41.5 333.4 6.27 0
S1059 RG1 N3304 7.3200 68.7 276.1 8.02 0
S1061 RG1 N13 11.6800 69.9 332.8 9.89 0
S1064 RG1 N3302 4.9900 12.1 236.8 5.51 0
S1065 RG1 N370 2.5000 70.6 179.6 8.01 0
S1068 RG1 N18 10.7200 8.1 321.6 10.33 0
S1069 RG1 N3302 3.8800 20.6 214.2 5.97 0
S1070 RG1 N3305 7.3800 70.1 277.0 8.23 0
S1071 RG1 N1783 4.0700 73.9 218.3 1.44 0
S1074 RG1 N2225 8.5700 69.5 294.0 6.65 0
S1075 RG1 N3324 10.5500 80.5 319.5 4.99 0
S1076 RG1 N2331 4.9600 81.6 236.3 5.43 0
S1077 RG1 N1933 18.7500 83.0 402.2 5.17 0
S1078 RG1 N3325 7.1300 77.4 273.2 4.95 0
S1079 RG1 N5966 9.4600 82.7 305.9 4.42 0
S1080 RG1 N290 15.6000 59.3 373.6 7.13 0
S1081 RG1 N3319 8.4100 81.6 291.8 8.23 0
S1082 RG1 N3327 1.6600 39.7 152.5 7.16 0
S1083 RG1 N3323 0.0900 86.2 47.5 4.53 0
S1084 RG1 N3149 4.7800 78.5 232.8 6.18 0
S1085 RG1 N18 4.2200 66.5 221.5 7.26 0
S1088 RG1 N3327 5.2200 56.0 241.1 4.48 0
S1089 RG1 N3323 8.0900 40.8 287.3 5.33 0
S1090 RG1 N3105 11.0700 67.1 325.7 3.91 0
S1092 RG1 N3303 4.9100 30.8 235.3 5.55 0
S1093 RG1 N3057 12.1200 58.2 337.8 4.47 0
S1094 RG1 N3119 0.0100 0.0 10.0 0.30 0
S1095 RG1 N3119 4.5100 63.7 227.4 4.80 0
S1096 RG1 N1791 11.7000 83.0 333.0 7.83 0
S1097 RG1 N2024 18.7700 84.8 402.3 4.61 0
S1098 RG1 N2117 4.7600 78.6 232.4 6.14 0
S1099 RG1 N3100 2.8800 81.7 190.1 3.56 0
S1100 RG1 N5959 6.6200 83.2 265.2 4.59 0
S1101 RG1 N3042 6.4600 62.1 262.6 5.05 0
S1102 RG1 N2378 5.9700 83.6 254.4 5.17 0
S1105 RG1 N3300 6.3100 80.6 260.1 5.52 0
S1106 RG1 N3297 2.3400 70.7 174.9 5.47 0
S1108 RG1 N3301 3.1200 81.9 196.3 7.30 0
S1109 RG1 N3278 1.6200 82.9 151.0 7.36 0
S1110 RG1 N3117 5.7100 74.7 250.0 7.50 0
S1111 RG1 N3149 18.4100 62.4 399.2 6.31 0
S1112 RG1 N2589 19.7900 50.3 410.9 7.05 0
S1113 RG1 N6990 15.8100 78.7 375.6 7.31 0
S1114 RG1 N3295 0.7400 75.7 110.4 5.57 0
S1115 RG1 N1782 6.7100 63.7 266.6 6.41 0
S1116 RG1 N1968 4.1200 85.0 219.4 3.24 0
S1117 RG1 N2301 6.6100 84.2 265.0 3.78 0
S1120 RG1 N3293 4.3900 72.0 225.0 7.10 0
S1121 RG1 N6969 5.2700 49.8 242.1 8.38 0
S1122 RG1 N2316 4.7300 84.8 231.8 4.53 0
S1123 RG1 N2361 6.9200 84.7 269.9 6.02 0
S1125 RG1 N3064 9.1000 30.2 301.2 3.90 0
S1126 RG1 N3063 4.9400 85.1 235.9 4.77 0
S1127 RG1 N3071 0.4300 22.1 88.8 1.25 0
S1128 RG1 N3117 4.4400 40.2 226.0 4.50 0
S1130 RG1 N3246 5.8500 75.1 252.4 6.70 0
S1132 RG1 N2071 6.1800 82.5 258.0 5.41 0
S1133 RG1 N2082 3.3800 72.0 202.7 5.42 0
S1134 RG1 N3157 5.1500 81.1 239.8 4.37 0
S1136 RG1 N3262 5.8500 33.5 252.4 6.21 0
S1137 RG1 N3265 16.2200 60.3 379.5 5.60 0
S1138 RG1 N99 10.0400 59.9 313.3 5.37 0
S1140 RG1 N94 3.8000 62.4 212.4 5.35 0
S1141 RG1 N94 0.0400 85.0 34.4 4.84 0
S1142 RG1 N182 11.7000 82.3 333.0 4.02 0
S1143 RG1 N94 4.1100 55.5 219.1 5.58 0
S1144 RG1 N2080 0.7900 72.1 113.3 4.67 0
S1145 RG1 N5880 23.4700 74.6 440.0 5.02 0
S1146 RG1 N97 1.6100 74.4 150.6 6.20 0
S1147 RG1 N3161 5.2000 73.6 240.8 5.71 0
S1148 RG1 N3267 13.1700 49.3 349.2 7.89 0
S1149 RG1 N3269 3.6800 65.0 209.7 5.79 0
S1150 RG1 N182 4.2100 60.8 221.3 5.29 0
S1151 RG1 N92 9.0900 54.8 301.0 7.27 0
S1152 RG1 N3262 0.8500 77.3 116.7 10.71 0
S1153 RG1 N3262 4.2800 60.6 222.7 8.07 0
S1154 RG1 N6995 8.0600 70.4 286.9 6.25 0
S1155 RG1 N2208 9.5500 76.2 307.0 4.39 0
S1156 RG1 N6993 5.0800 82.6 238.5 5.08 0
S1157 RG1 N2595 16.3500 82.0 380.7 5.08 0
S1159 RG1 N3262 7.3900 69.6 277.1 6.26 0
S1160 RG1 N3062 6.6400 84.0 265.5 4.76 0
S1161 RG1 N5920 26.9600 84.7 465.0 4.55 0
S1162 RG1 N2485 5.4000 84.1 244.4 5.03 0
S1163 RG1 N3046 16.4700 82.7 381.8 5.24 0
S1164 RG1 N6996 5.4600 75.9 245.5 5.54 0
S1165 RG1 N6997 4.5500 65.3 228.2 6.31 0
S1166 RG1 N2574 5.0100 84.2 237.2 4.17 0
S1167 RG1 N2453 0.5400 85.0 97.3 4.42 0
S1169 RG1 N1762 15.3100 46.9 370.8 7.45 0
S1172 RG1 N1796 5.5300 30.5 246.8 6.54 0
S1173 RG1 N3073 10.3200 84.7 316.7 4.52 0
S1174 RG1 N3098 8.2000 84.6 288.9 4.16 0
S1175 RG1 N1765 18.4200 31.8 399.3 6.26 0
S1176 RG1 N2351 7.1300 72.8 273.2 6.10 0
S1177 RG1 N2348 5.3600 80.7 243.7 5.25 0
S1179 RG1 N2597 2.5700 49.6 181.6 6.39 0
S1180 RG1 N2363 4.1200 81.3 219.4 5.94 0
S1181 RG1 N2429 0.0500 86.2 37.6 5.39 0
S1182 RG1 N2610 1.7300 44.3 155.0 6.01 0
S1183 RG1 N3259 6.2300 34.9 258.8 5.81 0
S1184 RG1 N3258 11.2400 43.3 327.7 5.85 0
S1186 RG1 N2612 2.5600 42.5 181.3 5.11 0
S1187 RG1 N2271 5.9600 84.0 254.3 5.00 0
S1188 RG1 N2324 9.4100 84.6 305.2 6.06 0
S1189 RG1 N3090 5.6200 85.1 248.4 3.82 0
S1190 RG1 N3094 1.1700 85.0 132.6 3.96 0
S1191 RG1 N6180 5.4400 58.2 245.2 5.50 0
S1192 RG1 N6229 11.7500 73.5 333.6 6.15 0
S1193 RG1 N3087 4.4700 84.8 226.6 5.90 0
S1194 RG1 N3160 10.0400 79.6 313.3 5.59 0
S1195 RG1 N2182 14.9200 79.3 367.0 4.63 0
S1196 RG1 N3259 7.0400 24.7 271.8 7.19 0
S1197 RG1 N68 5.8700 64.9 252.7 7.94 0
S1200 RG1 N2614 6.1100 18.6 256.8 5.86 0
S1201 RG1 N2623 5.6600 55.3 249.1 4.86 0
S1202 RG1 N3274 18.9700 68.4 404.0 6.17 0
S1203 RG1 N6964 9.5600 61.0 307.2 6.65 0
S1205 RG1 N6055 19.2500 77.2 406.4 4.60 0
S1206 RG1 N3516 2.0000 55.0 164.3 4.20 0
S1207 RG1 N3267 9.4900 60.0 306.3 7.04 0
S1208 RG1 N6202 2.4500 85.2 178.2 5.32 0
S1209 RG1 N2249 2.0200 85.3 164.9 3.98 0
S1210 RG1 N3516 0.0300 76.3 30.0 3.91 0
S1211 RG1 N3516 5.5700 42.8 247.5 5.60 0
S1212 RG1 N108 11.8400 81.0 334.6 6.65 0
S1213 RG1 N110 8.2400 83.0 289.5 3.94 0
S1215 RG1 N2363 4.6400 80.7 230.0 5.21 0
S1216 RG1 N111 0.2600 55.0 72.6 4.55 0
S1217 RG1 N217 4.9200 79.8 235.5 4.15 0
S1218 RG1 N2854 7.4200 84.6 277.6 4.91 0
S1221 RG1 N3516 0.1900 66.7 64.1 4.27 0
S1222 RG1 N6227 0.2700 85.0 73.7 5.97 0
S1223 RG1 N3261 22.5000 82.9 432.6 4.23 0
S1224 RG1 N3516 6.7900 72.8 267.9 7.01 0
S1225 RG1 N6191 5.7400 82.3 250.5 4.74 0
S1226 RG1 N3253 6.9200 68.9 269.9 5.98 0
S1227 RG1 N3263 9.3600 74.8 304.6 4.34 0
S1228 RG1 N2429 6.9900 83.6 271.0 5.98 0
S1229 RG1 N2445 4.1500 84.1 220.0 5.82 0
S1230 RG1 N3503 0.7800 75.8 112.7 3.85 0
S1231 RG1 N3516 1.4700 56.9 145.3 3.81 0
S1232 RG1 N6994 15.2200 82.6 370.0 6.88 0
S1233 RG1 N6945 7.4500 83.6 278.0 6.68 0
S1234 RG1 N2492 6.9000 84.1 269.6 5.67 0
S1235 RG1 N2507 20.5700 84.1 417.3 5.22 0
S1236 RG1 N3168 11.6400 82.5 332.3 5.42 0
S1237 RG1 N3006 4.6400 70.3 230.0 8.60 0
S1238 RG1 N3169 13.8700 78.5 356.5 8.44 0
S1239 RG1 N2886 7.3800 82.9 277.0 5.03 0
S1240 RG1 N3007 0.8500 81.5 116.7 4.10 0
S1241 RG1 N3084 14.6100 84.8 364.0 4.39 0
S1242 RG1 N3134 5.5100 85.1 246.4 4.90 0
S1243 RG1 N102 2.0900 84.0 167.2 4.18 0
S1244 RG1 N3077 0.0800 85.0 45.3 6.86 0
S1245 RG1 N3141 19.2900 83.7 406.8 4.46 0
S1246 RG1 N105 0.9400 84.3 121.5 5.42 0
S1247 RG1 N181 15.3200 77.3 370.9 5.29 0
S1248 RG1 N214 10.3900 83.7 317.6 6.32 0
S1249 RG1 N3476 6.2000 67.1 258.3 5.69 0
S1250 RG1 N6942 13.6700 64.7 354.4 7.09 0
S1251 RG1 N2525 2.3600 68.3 175.5 7.56 0
S1252 RG1 N7000 1.5400 78.4 148.0 7.79 0
S1254 RG1 N2563 4.2400 67.8 221.9 6.50 0
S1255 RG1 N3077 0.6200 85.2 102.8 3.99 0
S1256 RG1 N3248 10.0600 67.9 313.5 4.77 0
S1257 RG1 N6977 5.4900 80.4 246.1 6.62 0
S1258 RG1 N7001 8.9800 77.9 299.6 6.41 0
S1259 RG1 N3224 5.7900 82.5 251.3 6.10 0
S1260 RG1 N3251 16.4500 52.4 381.7 5.07 0
S1261 RG1 N6979 10.9100 81.9 323.8 4.51 0
S1262 RG1 N2817 8.5600 83.9 293.9 4.96 0
S1263 RG1 N6215 10.8700 84.7 323.4 4.79 0
S1264 RG1 N6084 14.7900 83.4 365.8 4.62 0
S1265 RG1 N6065 8.6700 84.5 295.4 4.33 0
S1266 RG1 N6155 4.9600 80.8 236.3 7.94 0
S1267 RG1 N6936 0.4700 79.7 92.1 6.13 0
S1268 RG1 N6158 0.6800 79.8 106.7 6.83 0
S1269 RG1 N3507 4.4500 62.6 226.2 5.16 0
S1271 RG1 N3513 23.3600 65.8 439.1 4.91 0
S1272 RG1 N6146 0.6800 85.2 106.7 4.68 0
S1273 RG1 N6112 4.0600 85.3 218.1 5.44 0
S1274 RG1 N2994 5.1500 83.1 239.8 3.68 0
S1275 RG1 N3035 9.4500 84.5 305.8 4.38 0
S1276 RG1 N174 4.0100 75.1 217.0 4.52 0
S1277 RG1 N190 5.2700 79.3 242.1 4.52 0
S1280 RG1 N2977 15.3400 83.6 371.1 4.26 0
S1281 RG1 N3203 10.6100 84.4 320.3 3.92 0
S1282 RG1 N201 8.0600 83.5 286.9 4.82 0
S1283 RG1 N48 0.4200 86.1 88.0 4.49 0
S1284 RG1 N2547 5.8900 72.8 253.1 6.13 0
S1285 RG1 N2549 8.0800 81.7 287.2 5.42 0
S1286 RG1 N6529 0.2600 81.9 72.6 4.24 0
S1287 RG1 N6529 0.3600 67.4 82.7 4.93 0
S1288 RG1 N40 5.6800 82.9 249.4 2.37 0
S1291 RG1 N3505 4.1900 58.1 220.8 4.43 0
S1292 RG1 N3507 2.7200 26.2 185.8 4.26 0
S1293 RG1 N6197 3.7600 78.1 211.5 6.63 0
S1294 RG1 N6098 12.2600 82.9 339.3 4.78 0
S1295 RG1 N6541 1.0300 83.3 126.0 8.06 0
S1296 RG1 N6950 7.1700 78.0 273.8 7.01 0
S1297 RG1 N3527 4.1700 81.7 220.4 6.18 0
S1298 RG1 N3528 7.9400 73.4 285.2 5.47 0
S1299 RG1 N6983 6.0000 72.0 255.0 5.38 0
S1300 RG1 N6933 0.0200 85.0 20.0 3.14 0
S1301 RG1 N6953 2.2500 74.0 172.2 5.72 0
S1302 RG1 N6978 9.8000 76.6 310.2 6.86 0
S1303 RG1 N3502 1.3500 84.6 140.4 5.42 0
S1304 RG1 N6930 6.2300 82.0 258.8 5.26 0
S1305 RG1 N3574 12.0900 67.8 337.4 7.42 0
S1307 RG1 N3504 13.5100 73.0 352.7 5.07 0
S1308 RG1 N66 2.9100 79.7 190.9 8.91 0
S1309 RG1 N49 13.5500 67.9 353.2 6.23 0
S1310 RG1 N3505 6.4400 74.1 262.3 4.78 0
S1313 RG1 N3217 17.8300 85.1 394.2 4.80 0
S1314 RG1 N3230 14.0300 83.6 358.1 4.68 0
S1316 RG1 N3529 3.7600 85.2 211.5 5.82 0
S1318 RG1 N2767 9.2000 84.0 302.5 5.50 0
S1319 RG1 N2898 24.3800 84.3 446.7 4.13 0
S1320 RG1 N6494 9.5300 81.5 306.8 5.38 0
S1321 RG1 N3210 8.5100 75.7 293.2 5.78 0
S1322 RG1 N6344 4.8800 82.7 234.7 6.15 0
S1323 RG1 N2943 15.0700 82.5 368.5 4.26 0
S1324 RG1 N3202 11.2300 82.9 327.6 7.23 0
S1325 RG1 N210 7.4400 77.2 277.9 6.60 0
S1326 RG1 N2666 2.2700 83.9 172.8 6.30 0
S1327 RG1 N2703 4.4600 80.4 226.4 3.10 0
S1328 RG1 N2740 4.2100 34.1 221.3 8.01 0
S1329 RG1 N2672 4.8500 66.9 234.2 5.60 0
S1331 RG1 N2738 4.0800 53.7 218.5 4.26 0
S1332 RG1 N3449 15.6700 66.2 374.3 5.96 0
S1333 RG1 N6934 5.3200 73.4 243.0 6.44 0
S1334 RG1 N3443 9.7900 82.1 310.1 5.29 0
S1339 RG1 N3724 11.5600 84.8 331.4 4.80 0
S1340 RG1 N3477 6.8600 85.4 269.0 5.38 0
S1341 RG1 N6537 0.7500 85.2 111.0 6.72 0
S1342 RG1 N6329 4.9300 78.7 235.7 6.08 0
S1343 RG1 N6500 4.8500 75.6 234.2 4.78 0
S1344 RG1 N57 5.8000 83.5 251.5 4.49 0
S1346 RG1 N6128 4.4800 80.6 226.8 4.87 0
S1347 RG1 N6499 5.5000 81.7 246.2 4.41 0
S1348 RG1 N6048 3.3700 84.3 202.4 4.17 0
S1349 RG1 N6342 0.5800 84.5 100.1 3.70 0
S1350 RG1 N169 8.9400 82.4 299.0 4.83 0
S1351 RG1 N205 3.2700 59.0 200.0 7.77 0
S1352 RG1 N6035 9.2700 84.4 303.4 5.94 0
S1353 RG1 N152 11.1800 83.2 327.0 4.72 0
S1354 RG1 N47 0.0600 58.3 40.4 5.72 0
S1355 RG1 N6101 6.4900 84.1 263.1 4.64 0
S1356 RG1 N6252 13.7400 83.4 355.1 4.62 0
S1357 RG1 N6028 0.1000 85.0 49.6 6.70 0
S1358 RG1 N6457 0.4200 85.0 88.0 6.04 0
S1359 RG1 N6314 6.2900 79.0 259.8 5.51 0
S1360 RG1 N5987 14.6700 79.1 364.6 5.65 0
S1361 RG1 N2945 5.0500 85.0 238.0 4.42 0
S1362 RG1 N6318 4.8900 79.8 234.9 5.26 0
S1363 RG1 N6317 3.4400 85.1 204.1 5.42 0
S1364 RG1 N6497 16.0500 79.8 377.9 4.54 0
S1365 RG1 N6281 14.5800 84.0 363.7 5.48 0
S1366 RG1 N6405 24.3000 81.9 446.1 4.02 0
S1367 RG1 N3210 3.5900 66.3 207.6 8.29 0
S1368 RG1 N34 7.3000 82.8 275.8 5.37 0
S1369 RG1 N119 10.5800 81.4 319.9 4.80 0
S1370 RG1 N3490 4.0900 85.0 218.7 8.71 0
S1371 RG1 N3525 2.4500 62.5 178.2 7.69 0
S1372 RG1 N3391 6.9200 84.8 269.9 5.56 0
S1374 RG1 N6502 10.4800 83.9 318.7 5.06 0
S1375 RG1 N205 7.9200 67.6 284.9 4.25 0
S1377 RG1 N3492 4.6500 82.9 230.2 5.86 0
S1378 RG1 N3518 1.1800 68.8 133.0 5.30 0
S1380 RG1 N3430 10.8500 80.9 323.1 5.91 0
S1382 RG1 N3429 6.2600 82.7 259.3 4.56 0
S1383 RG1 N192 5.2900 80.9 242.4 5.37 0
S1384 RG1 N144 3.5500 72.7 206.7 7.13 0
S1385 RG1 N3191 4.0900 85.1 218.7 3.78 0
S1386 RG1 N3242 10.9900 83.3 324.8 4.38 0
S1387 RG1 N3218 4.2000 79.7 221.1 5.99 0
S1389 RG1 N3237 0.0400 54.8 34.4 4.50 0
S1391 RG1 N3648 7.9700 79.5 285.6 4.98 0
S1392 RG1 N3666 4.9000 84.6 235.1 5.41 0
S1394 RG1 N3450 11.6400 82.6 332.3 4.26 0
S1395 RG1 N3237 14.3300 79.3 361.2 5.00 0
S1396 RG1 N3241 0.7400 71.7 110.4 6.05 0
S1397 RG1 N3448 7.9400 75.0 285.2 5.38 0
S1398 RG1 N3237 1.9900 79.8 164.0 5.08 0
S1399 RG1 N82 14.3900 83.7 361.8 6.24 0
S1400 RG1 N191 4.7100 59.2 231.4 1.57 0
S1401 RG1 N47 7.0400 62.6 271.8 2.22 0
S1404 RG1 N6368 12.0800 58.6 337.3 5.69 0
S1405 RG1 N6519 8.0200 42.6 286.3 5.40 0
S1406 RG1 N6520 2.7900 84.7 187.7 4.38 0
S1407 RG1 N88 10.8000 82.5 322.5 8.06 0
S1408 RG1 N3523 14.5600 81.5 363.5 5.82 0
S1409 RG1 N6507 4.9200 77.2 235.5 5.41 0
S1410 RG1 N184 9.3000 77.5 303.8 5.95 0
S1411 RG1 N3921 6.3500 83.8 260.8 6.24 0
S1412 RG1 N3352 4.8400 69.9 234.0 7.44 0
S1413 RG1 N3404 6.7300 84.7 266.9 5.15 0
S1414 RG1 N6308 9.6200 83.8 307.9 5.28 0
S1415 RG1 N6349 4.0700 83.8 218.3 4.97 0
S1416 RG1 N6363 7.0400 82.2 271.8 5.01 0
S1417 RG1 N195 1.4000 83.2 142.4 5.05 0
S1418 RG1 N6359 6.0900 81.2 256.5 4.62 0
S1419 RG1 N76 0.6800 9.9 106.7 2.67 0
S1420 RG1 N3357 1.8400 83.1 158.9 12.50 0
S1421 RG1 N3357 0.5800 67.5 100.1 5.79 0
S1422 RG1 N4413 5.2300 81.6 241.3 4.50 0
S1423 RG1 N4414 10.3400 66.0 317.0 6.74 0
S1424 RG1 N76 1.7500 51.4 155.7 2.54 0
S1425 RG1 N183 6.7100 66.3 266.6 4.62 0
S1426 RG1 N5992 5.9900 83.5 254.8 5.79 0
S1427 RG1 N7050 4.7800 81.8 232.8 5.67 0
S1428 RG1 N53 6.6100 75.5 265.0 7.76 0
S1430 RG1 N4455 10.3300 83.8 316.8 5.31 0
S1431 RG1 N3188 4.6800 74.4 230.8 4.20 0
S1432 RG1 N3190 7.2300 56.4 274.7 5.05 0
S1433 RG1 N7128 15.9100 41.7 376.6 4.82 0
S1435 RG1 N3530 5.1400 85.0 239.7 2.60 0
S1436 RG1 N3531 2.9000 73.8 190.6 3.26 0
S1438 RG1 N3531 4.0100 69.5 217.0 4.04 0
S1440 RG1 N3531 1.1600 81.8 132.1 3.93 0
S1445 RG1 N3517 2.3200 69.4 174.3 10.18 0
S1446 RG1 N3349 8.7100 84.5 295.9 5.88 0
S1447 RG1 N4238 0.6800 55.3 106.7 12.65 0
S1449 RG1 N3606 13.0700 7.9 348.1 3.21 0
S1450 RG1 N3425 4.9200 79.0 235.5 4.64 0
S1452 RG1 N7036 1.6300 85.2 151.4 6.58 0
S1453 RG1 N41 0.9300 51.0 120.9 1.81 0
S1454 RG1 N4238 0.7500 34.2 111.0 13.97 0
S1455 RG1 N4246 4.4600 41.3 226.4 9.61 0
S1457 RG1 N4246 2.9700 11.9 192.4 2.47 0
S1458 RG1 N3612 12.3900 35.3 340.7 3.96 0
S1459 RG1 N3397 4.6800 75.6 230.8 6.12 0
S1460 RG1 N3414 0.1800 47.9 62.7 4.33 0
S1461 RG1 N3417 4.8800 84.4 234.7 5.12 0
S1463 RG1 N5982 40.4700 68.5 547.1 8.06 0
S1464 RG1 N3579 23.5400 80.3 440.5 5.16 0
S1465 RG1 N3600 8.2700 71.7 289.9 6.63 0
S1466 RG1 N3618 10.0100 71.8 312.9 6.14 0
S1467 RG1 N4023 3.9000 83.6 214.6 4.41 0
S1468 RG1 N4026 2.0700 38.1 166.6 6.59 0
S1469 RG1 N3409 0.6200 78.2 102.8 5.04 0
S1470 RG1 N4010 7.3400 73.7 276.4 6.18 0
S1471 RG1 N3530 4.3400 80.9 224.0 2.00 0
S1472 RG1 N6505 5.7700 81.8 251.0 5.07 0
S1475 RG1 N4416 12.6600 82.5 343.7 5.27 0
S1476 RG1 N3564 4.3700 57.7 224.6 4.00 0
S1477 RG1 N4221 7.8800 60.3 284.3 5.20 0
S1485 RG1 N4002 8.7800 78.3 296.9 4.84 0
S1486 RG1 N4013 12.8000 77.1 345.2 5.62 0
S1491 RG1 N6503 7.7200 84.3 282.0 4.54 0
S1493 RG1 N4019 18.4200 68.1 399.3 5.01 0
S1494 RG1 N4395 12.4100 83.7 341.0 4.29 0
S1497 RG1 N4405 5.2100 76.1 241.0 4.86 0
S1500 RG1 N3530 7.2200 42.1 274.5 2.93 0
S1501 RG1 N3475 21.7400 82.3 426.7 5.43 0
S1502 RG1 N3928 1.9300 68.3 162.0 6.71 0
S1503 RG1 N7063 14.4500 77.4 362.4 6.46 0
S1504 RG1 N4059 9.0000 74.7 299.8 4.91 0
S1505 RG1 N4231 5.0000 78.1 237.0 4.60 0
S1508 RG1 N7034 11.2100 83.8 327.4 5.03 0
S1509 RG1 N3569 8.9600 84.4 299.3 9.41 0
S1512 RG1 N4097 7.7100 84.0 281.9 5.51 0
S1515 RG1 N3792 5.3600 68.9 243.7 4.54 0
S1516 RG1 N3936 5.1700 76.0 240.2 4.63 0
S1517 RG1 N3535 6.7800 51.5 267.7 3.55 0
S1520 RG1 N3544 6.5800 52.4 264.5 4.65 0
S1521 RG1 N3972 10.6900 83.1 321.2 4.02 0
S1523 RG1 N3884 1.0600 85.0 127.4 3.87 0
S1524 RG1 N3902 6.2900 78.8 259.8 4.79 0
S1525 RG1 N3834 3.6100 82.8 208.1 5.32 0
S1526 RG1 N7127 14.9500 50.9 367.3 3.84 0
S1528 RG1 N3770 6.6000 78.1 264.9 4.07 0
S1529 RG1 N3856 5.2600 83.6 241.9 5.02 0
S1530 RG1 N3745 4.0400 85.2 217.6 4.97 0
S1531 RG1 N3833 4.1300 78.6 219.6 6.75 0
S1532 RG1 N7035 30.3000 55.6 487.3 5.07 0
S1533 RG1 N7026 1.0000 85.0 124.5 4.73 0
S1534 RG1 N7018 12.5800 84.8 342.8 4.37 0
S1535 RG1 N7006 1.9100 33.5 161.3 4.89 0
S1536 RG1 N3870 4.5000 77.9 227.2 4.53 0
S1537 RG1 N7032 8.1000 48.3 287.5 3.61 0
S1538 RG1 N7032 4.7400 28.7 232.0 4.60 0
S1539 RG1 N3810 3.8400 82.1 213.3 4.67 0
S1540 RG1 N3829 2.0100 84.8 164.6 3.99 0
S1541 RG1 N3820 6.3000 79.3 260.0 4.60 0
S1542 RG1 N3742 6.6200 85.4 265.2 5.22 0
S1543 RG1 N4672 3.0100 85.5 193.5 4.40 0
S1544 RG1 N4330 24.3600 83.9 446.6 4.71 0
S1545 RG1 N4364 8.5700 84.2 294.0 4.91 0
S1546 RG1 N3821 1.2000 49.9 133.9 4.31 0
S1547 RG1 N4438 9.1100 84.2 301.3 4.77 0
S1548 RG1 N4436 6.8600 66.5 269.0 3.31 0
S1549 RG1 N3799 3.1900 85.5 198.0 4.02 0
S1550 RG1 N7032 6.6500 81.9 265.7 5.73 0
S1552 RG1 N3862 25.0600 78.2 451.6 4.85 0
S1561 RG1 N4216 9.9300 82.9 311.9 4.71 0
S1562 RG1 N4079 0.2800 77.5 74.8 3.23 0
S1563 RG1 N4086 5.3000 81.5 242.6 7.01 0
S1564 RG1 N4448 4.4000 41.0 225.2 5.05 0
S1565 RG1 N4081 5.5800 76.4 247.7 3.62 0
S1566 RG1 N4440 4.5000 70.5 227.2 6.64 0
S1567 RG1 N4448 0.5200 51.4 95.9 3.55 0
S1568 RG1 N4449 15.0100 81.2 367.9 3.98 0
S1569 RG1 N4349 0.1900 41.4 64.1 3.80 0
S1570 RG1 N4448 7.8600 44.6 284.0 4.63 0
S1573 RG1 N4459 11.4500 80.9 330.2 4.60 0
S1574 RG1 N4349 0.2100 43.3 66.7 4.78 0
S1575 RG1 N4426 0.1500 30.1 58.3 1.61 0
S1576 RG1 N4349 0.7100 76.4 108.6 4.19 0
S1577 RG1 N3863 4.1200 66.8 219.4 6.48 0
S1578 RG1 N3863 8.5700 75.6 294.0 6.24 0
S1584 RG1 N4140 18.1700 61.2 397.1 6.22 0
S1585 RG1 N4131 16.2500 79.3 379.8 6.34 0
S1588 RG1 N3861 10.3800 74.6 317.5 5.10 0
S1589 RG1 N4194 14.5200 82.0 363.1 7.05 0
S1591 RG1 N4128 8.1900 74.5 288.7 7.42 0
S1592 RG1 N4559 9.4000 74.7 305.1 4.63 0
S1597 RG1 N4677 6.8800 85.5 269.3 7.90 0
S1598 RG1 N3733 4.2200 63.7 221.5 6.58 0
S1599 RG1 N4270 33.8200 81.6 509.2 4.02 0
S1602 RG1 N4247 5.0700 84.1 238.3 4.86 0
S1603 RG1 N4307 4.6200 82.3 229.6 5.31 0
S1604 RG1 N4282 0.0400 85.0 34.4 2.32 0
S1606 RG1 N4280 7.8400 80.6 283.7 4.60 0
S1609 RG1 N4425 21.7200 78.2 426.5 3.93 0
S1610 RG1 N4349 10.3700 65.0 317.3 2.61 0
S1613 RG1 N4265 9.7900 78.5 310.1 3.94 0
S1614 RG1 N4274 8.2500 69.2 289.6 4.50 0
S1615 RG1 N4551 3.8000 35.5 212.4 4.36 0
S1616 RG1 N4552 19.8800 74.4 411.7 5.37 0
S1621 RG1 N4282 1.9500 70.9 162.6 4.76 0
S1622 RG1 N4353 12.2400 74.8 339.1 4.35 0
S1623 RG1 N4292 17.4100 79.0 390.4 3.72 0
S1628 RG1 N4556 4.7000 58.1 231.2 4.29 0
S1629 RG1 N4581 19.2600 58.0 406.5 4.87 0
S1631 RG1 N4247 6.7400 83.7 267.1 4.63 0
S1633 RG1 N4295 1.4300 60.6 143.7 2.07 0
S1634 RG1 N4300 8.9000 68.0 298.5 3.01 0
S1635 RG1 N4299 4.9000 73.2 235.1 2.68 0
S1636 RG1 N4536 0.7900 75.3 113.3 3.28 0
S1637 RG1 N4543 7.9100 82.0 284.8 4.01 0
S1638 RG1 N4610 13.3500 76.7 351.1 5.00 0
S1639 RG1 N4300 4.7700 70.6 232.6 2.43 0
S1641 RG1 N4610 25.1900 53.2 452.6 5.08 0
S1642 RG1 N4606 13.3400 81.1 351.0 6.43 0
S1643 RG1 N4680 0.0700 16.4 43.0 2.00 0
S1645 RG1 N4294 8.5400 71.5 293.6 2.66 0
S1646 RG1 N4295 1.6400 74.3 151.8 2.75 0
S1649 RG1 N4251 8.5800 76.8 294.2 4.00 0
S1650 RG1 N4257 24.4200 79.7 447.0 3.99 0
S1651 RG1 N4291 5.2900 79.2 242.4 5.19 0
S1652 RG1 N4296 7.3000 74.6 275.8 2.67 0
S1655 RG1 N4481 3.7000 60.8 210.1 3.64 0
S1656 RG1 N4481 4.3700 63.6 224.6 3.85 0
S1657 RG1 N4264 4.5100 79.2 227.4 4.17 0
S1664 RG1 N4663 14.7900 74.5 365.8 4.30 0
S1665 RG1 N4536 2.4400 76.1 177.9 3.90 0
S1670 RG1 N4588 5.9800 75.7 254.6 4.37 0
S1674 RG1 N4175 9.8500 83.8 310.9 4.81 0
S1680 RG1 N4145 7.7600 81.3 282.6 4.80 0
S1690 RG1 N4298 3.8800 68.1 214.2 4.03 0
S1691 RG1 N4475 4.2300 68.5 221.7 2.41 0
S1696 RG1 N4466 8.1900 58.3 288.7 5.73 0
S1697 RG1 N4466 6.2500 20.0 259.2 2.97 0
S1703 RG1 N4297 6.1800 74.8 258.0 2.41 0
S1707 RG1 N4297 5.9600 64.2 254.3 6.37 0
S1710 RG1 N4293 6.5900 73.8 264.7 3.75 0
S1711 RG1 N4161 2.2000 83.4 170.7 3.02 0
S1712 RG1 N4656 3.3100 70.5 201.0 3.81 0
S1713 RG1 N4600 16.0300 83.1 377.7 4.24 0
S1716 RG1 N4296 5.7700 33.9 251.0 4.09 0
S1717 RG1 N4644 3.5600 64.9 206.9 4.42 0
S1719 RG1 N4647 1.9600 83.7 163.0 3.36 0
S1720 RG1 N4646 0.1100 85.0 51.5 4.06 0
S1723 RG1 N4641 8.2900 77.4 290.2 5.72 0
S1726 RG1 N4637 19.2100 70.4 406.1 4.59 0
S1727 RG1 N4637 9.8000 57.1 310.2 3.88 0
S1728 RG1 N4648 0.0600 19.2 40.4 3.50 0
S1729 RG1 N4630 4.6600 69.8 230.4 4.45 0
S1730 RG1 N4630 6.3100 74.0 260.1 5.97 0
S1731 RG1 N4471 4.8400 68.5 234.0 2.78 0
S1732 RG1 N4297 0.6000 74.4 101.5 2.10 0
S1734 RG1 N4470 9.5300 69.1 306.8 4.49 0
S1750 RG1 N4605 17.6100 80.3 392.2 7.77 0
S1753 RG1 N4685 18.2700 76.1 398.0 7.33 0
S1754 RG1 N4469 12.3200 33.5 340.0 3.63 0
S1757 RG1 N4627 11.1800 69.1 327.0 5.26 0
S1759 RG1 N4615 5.1600 84.7 240.0 5.50 0
S1760 RG1 N4592 9.6300 78.3 308.1 4.40 0
S1764 RG1 N7113 22.3500 47.9 431.4 5.33 0
S1765 RG1 N7123 7.5600 42.6 279.6 3.33 0
S1769 RG1 N4505 4.3300 57.5 223.8 6.42 0
S1776 RG1 N4469 0.5600 69.3 98.7 4.35 0
S1777 RG1 N4495 22.1800 52.4 430.1 4.69 0
S1782 RG1 N4628 11.7200 67.9 333.3 3.68 0
S1784 RG1 N4509 0.3600 61.6 82.7 3.21 0
S1788 RG1 N4524 4.2500 84.8 222.1 3.90 0
S1790 RG1 N4514 5.7700 84.2 251.0 2.24 0
S1798 RG1 N7135 10.6800 17.4 321.1 1.64 0
S1799 RG1 N4709 24.5800 67.0 448.2 7.36 0
S1802 RG1 N4505 5.5200 57.3 246.6 4.94 0
S1808 RG1 N4505 9.7100 73.1 309.1 6.15 0
S1813 RG1 N4706 4.4000 42.4 225.2 2.31 0
S1814 RG1 N4759 13.3300 78.4 350.9 5.93 0
S1815 RG1 N4615 11.7700 35.5 333.8 3.35 0
S1816 RG1 N7103 2.7100 73.0 185.5 5.23 0
S1817 RG1 N7125 5.2000 80.3 240.8 6.45 0
S1819 RG1 N7101 6.9700 68.9 270.7 5.36 0
S1820 RG1 N7120 0.7300 78.3 109.8 4.49 0
S1824 RG1 N4759 9.4600 76.2 305.9 4.58 0
S1827 RG1 N4510 6.2300 65.5 258.8 3.70 0
S1828 RG1 N4706 12.4200 77.9 341.1 6.22 0
S1829 RG1 N4812 5.0900 83.5 238.7 4.68 0
S1830 RG1 N4697 12.6300 49.1 343.4 3.04 0
S1831 RG1 N7106 1.0300 83.6 126.0 6.25 0
S1832 RG1 N7116 1.0400 79.1 126.5 5.02 0
S1833 RG1 N7124 18.1100 60.6 396.6 3.98 0
S1835 RG1 N7094 10.9000 81.4 323.7 4.57 0
S1836 RG1 N7096 4.0800 78.3 218.5 3.75 0
S1840 RG1 N4570 5.1700 83.5 240.2 2.17 0
S1844 RG1 N7098 4.8800 84.8 234.7 5.02 0
S1846 RG1 N7141 6.1800 76.6 258.0 6.08 0
S1847 RG1 N7137 7.4200 81.8 277.6 4.37 0
S1848 RG1 N7137 5.5000 84.8 246.2 4.47 0
S1851 RG1 N4787 9.9400 44.3 312.0 4.05 0
S1852 RG1 N4625 0.9500 77.1 122.0 2.25 0
S1853 RG1 N4494 4.3700 16.7 224.6 3.19 0
S1854 RG1 N4494 1.0700 30.1 127.9 4.32 0
S1856 RG1 N4770 10.2900 63.7 316.4 5.90 0
S1857 RG1 N4765 1.4000 84.4 142.4 3.84 0
S1859 RG1 N4770 7.1100 80.9 272.9 4.19 0
S1860 RG1 N4767 4.5600 78.5 228.4 3.86 0
S1861 RG1 N4761 3.9400 82.8 215.5 4.44 0
S1862 RG1 N4815 5.2600 84.4 241.9 4.56 0
S1863 RG1 N4494 5.3900 48.1 244.3 3.97 0
S1864 RG1 N4501 18.4200 69.2 399.3 4.81 0
S1865 RG1 N4782 5.9000 82.9 253.2 3.70 0
S1866 RG1 N4813 2.9000 82.5 190.6 2.66 0
S1870 RG1 N4625 2.4400 55.1 177.9 2.49 0
S1871 RG1 N4622 5.3600 84.0 243.7 1.41 0
S1874 RG1 N4697 4.4500 23.7 226.2 6.55 0
S1875 RG1 N4696 19.6800 65.6 410.0 6.86 0
S1876 RG1 N7138 13.9900 71.9 357.7 3.67 0
S1888 RG1 N7142 21.3900 77.1 423.9 5.03 0
S1891 RG1 N4771 11.1100 84.0 326.2 4.54 0
S1892 RG1 N4777 0.9500 58.2 122.0 3.69 0
S1896 RG1 N4787 7.7200 63.4 282.0 3.36 0
S1897 RG1 N4619 4.0100 64.7 217.0 1.60 0
S1898 RG1 N4811 8.6200 77.9 294.7 5.33 0
S1901 RG1 N4616 0.0600 19.2 40.4 1.86 0
S1902 RG1 N4616 5.3800 67.2 244.1 1.57 0
S1903 RG1 N4801 0.3200 85.5 78.9 5.65 0
S1904 RG1 N4805 5.1600 83.3 240.0 4.29 0
S1906 RG1 N4799 15.6400 78.8 374.0 5.47 0
S1908 RG1 N4778 2.3400 75.6 174.9 9.24 0
S1909 RG1 N4719 5.2000 66.5 240.8 6.12 0
S1926 RG1 N4804 6.3600 52.6 261.0 2.22 0
S1929 RG1 N4804 14.6200 80.0 364.1 3.74 0
S1934 RG1 N4730 4.6600 84.1 230.4 4.79 0
S1937 RG1 N4737 4.1700 83.5 220.4 4.38 0
S1938 RG1 N4739 0.2800 85.0 74.8 2.01 0
S1940 RG1 N4739 1.9900 78.0 164.0 6.41 0
S1941 RG1 N4779 7.0300 53.4 271.6 3.22 0
S1944 RG1 N4753 6.3600 33.8 261.0 2.87 0
S1945 RG1 N4689 9.3300 73.1 304.2 5.18 0
S1948 RG1 N4742 0.5100 85.0 95.1 3.34 0
S1949 RG1 N4795 4.2000 83.5 221.1 5.56 0
S1956 RG1 N4711 11.1300 79.0 326.4 6.96 0
S1957 RG1 N4688 7.6900 71.0 281.6 6.69 0
S1960 RG1 N4718 9.9300 85.1 311.9 6.25 0
S1961 RG1 N4723 6.8700 51.7 269.1 4.03 0
S1980 RG1 N4485 10.0900 65.9 313.9 5.24 0
S1981 RG1 N4498 15.2500 74.9 370.3 5.30 0
S1987 RG1 N4691 19.6000 71.9 409.4 5.68 0
S1988 RG1 N4747 5.2000 36.5 240.8 3.24 0

[SUBAREAS]
S0 0.013 0.15 1.27 5.08 25 OUTLET
S1 0.013 0.15 1.27 5.08 25 OUTLET
S2 0.013 0.15 1.27 5.08 25 OUTLET
S3 0.013 0.15 1.27 5.08 25 OUTLET
S4 0.013 0.15 1.27 5.08 25 OUTLET
S5 0.013 0.15 1.27 5.08 25 OUTLET
S6 0.013 0.15 1.27 5.08 25 OUTLET
S7 0.013 0.15 1.27 5.08 25 OUTLET
S8 0.013 0.15 1.27 5.08 25 OUTLET
S9 0.013 0.15 1.27 5.08 25 OUTLET
S11 0.013 0.15 1.27 5.08 25 OUTLET
S12 0.013 0.15 1.27 5.08 25 OUTLET
S13 0.013 0.15 1.27 5.08 25 OUTLET
S14 0.013 0.15 1.27 5.08 25 OUTLET
S15 0.013 0.15 1.27 5.08 25 OUTLET
S16 0.013 0.15 1.27 5.08 25 OUTLET
S17 0.013 0.15 1.27 5.08 25 OUTLET
S18 0.013 0.15 1.27 5.08 25 OUTLET
S19 0.013 0.15 1.27 5.08 25 OUTLET
S20 0.013 0.15 1.27 5.08 25 OUTLET
S21 0.013 0.15 1.27 5.08 25 OUTLET
S23 0.013 0.15 1.27 5.08 25 OUTLET
S24 0.013 0.15 1.27 5.08 25 OUTLET
S25 0.013 0.15 1.27 5.08 25 OUTLET
S26 0.013 0.15 1.27 5.08 25 OUTLET
S27 0.013 0.15 1.27 5.08 25 OUTLET
S28 0.013 0.15 1.27 5.08 25 OUTLET
S29 0.013 0.15 1.27 5.08 25 OUTLET
S30 0.013 0.15 1.27 5.08 25 OUTLET
S32 0.013 0.15 1.27 5.08 25 OUTLET
S33 0.013 0.15 1.27 5.08 25 OUTLET
S34 0.013 0.15 1.27 5.08 25 OUTLET
S35 0.013 0.15 1.27 5.08 25 OUTLET
S36 0.013 0.15 1.27 5.08 25 OUTLET
S37 0.013 0.15 1.27 5.08 25 OUTLET
S38 0.013 0.15 1.27 5.08 25 OUTLET
S39 0.013 0.15 1.27 5.08 25 OUTLET
S40 0.013 0.15 1.27 5.08 25 OUTLET
S41 0.013 0.15 1.27 5.08 25 OUTLET
S42 0.013 0.15 1.27 5.08 25 OUTLET
S43 0.013 0.15 1.27 5.08 25 OUTLET
S44 0.013 0.15 1.27 5.08 25 OUTLET
S45 0.013 0.15 1.27 5.08 25 OUTLET
S46 0.013 0.15 1.27 5.08 25 OUTLET
S49 0.013 0.15 1.27 5.08 25 OUTLET
S50 0.013 0.15 1.27 5.08 25 OUTLET
S51 0.013 0.15 1.27 5.08 25 OUTLET
S52 0.013 0.15 1.27 5.08 25 OUTLET
S53 0.013 0.15 1.27 5.08 25 OUTLET
S54 0.013 0.15 1.27 5.08 25 OUTLET
S55 0.013 0.15 1.27 5.08 25 OUTLET
S56 0.013 0.15 1.27 5.08 25 OUTLET
S57 0.013 0.15 1.27 5.08 25 OUTLET
S58 0.013 0.15 1.27 5.08 25 OUTLET
S59 0.013 0.15 1.27 5.08 25 OUTLET
S60 0.013 0.15 1.27 5.08 25 OUTLET
S61 0.013 0.15 1.27 5.08 25 OUTLET
S62 0.013 0.15 1.27 5.08 25 OUTLET
S63 0.013 0.15 1.27 5.08 25 OUTLET
S64 0.013 0.15 1.27 5.08 25 OUTLET
S65 0.013 0.15 1.27 5.08 25 OUTLET
S66 0.013 0.15 1.27 5.08 25 OUTLET
S67 0.013 0.15 1.27 5.08 25 OUTLET
S68 0.013 0.15 1.27 5.08 25 OUTLET
S69 0.013 0.15 1.27 5.08 25 OUTLET
S70 0.013 0.15 1.27 5.08 25 OUTLET
S71 0.013 0.15 1.27 5.08 25 OUTLET
S72 0.013 0.15 1.27 5.08 25 OUTLET
S73 0.013 0.15 1.27 5.08 25 OUTLET
S74 0.013 0.15 1.27 5.08 25 OUTLET
S75 0.013 0.15 1.27 5.08 25 OUTLET
S76 0.013 0.15 1.27 5.08 25 OUTLET
S77 0.013 0.15 1.27 5.08 25 OUTLET
S78 0.013 0.15 1.27 5.08 25 OUTLET
S80 0.013 0.15 1.27 5.08 25 OUTLET
S81 0.013 0.15 1.27 5.08 25 OUTLET
S82 0.013 0.15 1.27 5.08 25 OUTLET
S83 0.013 0.15 1.27 5.08 25 OUTLET
S84 0.013 0.15 1.27 5.08 25 OUTLET
S85 0.013 0.15 1.27 5.08 25 OUTLET
S86 0.013 0.15 1.27 5.08 25 OUTLET
S87 0.013 0.15 1.27 5.08 25 OUTLET
S88 0.013 0.15 1.27 5.08 25 OUTLET
S89 0.013 0.15 1.27 5.08 25 OUTLET
S90 0.013 0.15 1.27 5.08 25 OUTLET
S91 0.013 0.15 1.27 5.08 25 OUTLET
S92 0.013 0.15 1.27 5.08 25 OUTLET
S93 0.013 0.15 1.27 5.08 25 OUTLET
S94 0.013 0.15 1.27 5.08 25 OUTLET
S95 0.013 0.15 1.27 5.08 25 OUTLET
S96 0.013 0.15 1.27 5.08 25 OUTLET
S97 0.013 0.15 1.27 5.08 25 OUTLET
S98 0.013 0.15 1.27 5.08 25 OUTLET
S99 0.013 0.15 1.27 5.08 25 OUTLET
S100 0.013 0.15 1.27 5.08 25 OUTLET
S101 0.013 0.15 1.27 5.08 25 OUTLET
S102 0.013 0.15 1.27 5.08 25 OUTLET
S103 0.013 0.15 1.27 5.08 25 OUTLET
S104 0.013 0.15 1.27 5.08 25 OUTLET
S105 0.013 0.15 1.27 5.08 25 OUTLET
S107 0.013 0.15 1.27 5.08 25 OUTLET
S108 0.013 0.15 1.27 5.08 25 OUTLET
S109 0.013 0.15 1.27 5.08 25 OUTLET
S110 0.013 0.15 1.27 5.08 25 OUTLET
S111 0.013 0.15 1.27 5.08 25 OUTLET
S112 0.013 0.15 1.27 5.08 25 OUTLET
S113 0.013 0.15 1.27 5.08 25 OUTLET
S114 0.013 0.15 1.27 5.08 25 OUTLET
S115 0.013 0.15 1.27 5.08 25 OUTLET
S116 0.013 0.15 1.27 5.08 25 OUTLET
S117 0.013 0.15 1.27 5.08 25 OUTLET
S118 0.013 0.15 1.27 5.08 25 OUTLET
S119 0.013 0.15 1.27 5.08 25 OUTLET
S120 0.013 0.15 1.27 5.08 25 OUTLET
S121 0.013 0.15 1.27 5.08 25 OUTLET
S122 0.013 0.15 1.27 5.08 25 OUTLET
S123 0.013 0.15 1.27 5.08 25 OUTLET
S124 0.013 0.15 1.27 5.08 25 OUTLET
S125 0.013 0.15 1.27 5.08 25 OUTLET
S126 0.013 0.15 1.27 5.08 25 OUTLET
S127 0.013 0.15 1.27 5.08 25 OUTLET
S128 0.013 0.15 1.27 5.08 25 OUTLET
S129 0.013 0.15 1.27 5.08 25 OUTLET
S130 0.013 0.15 1.27 5.08 25 OUTLET
S131 0.013 0.15 1.27 5.08 25 OUTLET
S132 0.013 0.15 1.27 5.08 25 OUTLET
S133 0.013 0.15 1.27 5.08 25 OUTLET
S134 0.013 0.15 1.27 5.08 25 OUTLET
S136 0.013 0.15 1.27 5.08 25 OUTLET
S137 0.013 0.15 1.27 5.08 25 OUTLET
S138 0.013 0.15 1.27 5.08 25 OUTLET
S139 0.013 0.15 1.27 5.08 25 OUTLET
S140 0.013 0.15 1.27 5.08 25 OUTLET
S141 0.013 0.15 1.27 5.08 25 OUTLET
S142 0.013 0.15 1.27 5.08 25 OUTLET
S143 0.013 0.15 1.27 5.08 25 OUTLET
S144 0.013 0.15 1.27 5.08 25 OUTLET
S145 0.013 0.15 1.27 5.08 25 OUTLET
S146 0.013 0.15 1.27 5.08 25 OUTLET
S147 0.013 0.15 1.27 5.08 25 OUTLET
S148 0.013 0.15 1.27 5.08 25 OUTLET
S149 0.013 0.15 1.27 5.08 25 OUTLET
S150 0.013 0.15 1.27 5.08 25 OUTLET
S151 0.013 0.15 1.27 5.08 25 OUTLET
S152 0.013 0.15 1.27 5.08 25 OUTLET
S153 0.013 0.15 1.27 5.08 25 OUTLET
S154 0.013 0.15 1.27 5.08 25 OUTLET
S155 0.013 0.15 1.27 5.08 25 OUTLET
S156 0.013 0.15 1.27 5.08 25 OUTLET
S157 0.013 0.15 1.27 5.08 25 OUTLET
S158 0.013 0.15 1.27 5.08 25 OUTLET
S159 0.013 0.15 1.27 5.08 25 OUTLET
S160 0.013 0.15 1.27 5.08 25 OUTLET
S161 0.013 0.15 1.27 5.08 25 OUTLET
S162 0.013 0.15 1.27 5.08 25 OUTLET
S163 0.013 0.15 1.27 5.08 25 OUTLET
S164 0.013 0.15 1.27 5.08 25 OUTLET
S165 0.013 0.15 1.27 5.08 25 OUTLET
S166 0.013 0.15 1.27 5.08 25 OUTLET
S167 0.013 0.15 1.27 5.08 25 OUTLET
S168 0.013 0.15 1.27 5.08 25 OUTLET
S169 0.013 0.15 1.27 5.08 25 OUTLET
S170 0.013 0.15 1.27 5.08 25 OUTLET
S171 0.013 0.15 1.27 5.08 25 OUTLET
S172 0.013 0.15 1.27 5.08 25 OUTLET
S173 0.013 0.15 1.27 5.08 25 OUTLET
S174 0.013 0.15 1.27 5.08 25 OUTLET
S175 0.013 0.15 1.27 5.08 25 OUTLET
S176 0.013 0.15 1.27 5.08 25 OUTLET
S177 0.013 0.15 1.27 5.08 25 OUTLET
S178 0.013 0.15 1.27 5.08 25 OUTLET
S179 0.013 0.15 1.27 5.08 25 OUTLET
S180 0.013 0.15 1.27 5.08 25 OUTLET
S181 0.013 0.15 1.27 5.08 25 OUTLET
S182 0.013 0.15 1.27 5.08 25 OUTLET
S183 0.013 0.15 1.27 5.08 25 OUTLET
S184 0.013 0.15 1.27 5.08 25 OUTLET
S185 0.013 0.15 1.27 5.08 25 OUTLET
S186 0.013 0.15 1.27 5.08 25 OUTLET
S187 0.013 0.15 1.27 5.08 25 OUTLET
S188 0.013 0.15 1.27 5.08 25 OUTLET
S189 0.013 0.15 1.27 5.08 25 OUTLET
S190 0.013 0.15 1.27 5.08 25 OUTLET
S191 0.013 0.15 1.27 5.08 25 OUTLET
S192 0.013 0.15 1.27 5.08 25 OUTLET
S193 0.013 0.15 1.27 5.08 25 OUTLET
S194 0.013 0.15 1.27 5.08 25 OUTLET
S195 0.013 0.15 1.27 5.08 25 OUTLET
S196 0.013 0.15 1.27 5.08 25 OUTLET
S197 0.013 0.15 1.27 5.08 25 OUTLET
S198 0.013 0.15 1.27 5.08 25 OUTLET
S199 0.013 0.15 1.27 5.08 25 OUTLET
S200 0.013 0.15 1.27 5.08 25 OUTLET
S201 0.013 0.15 1.27 5.08 25 OUTLET
S202 0.013 0.15 1.27 5.08 25 OUTLET
S203 0.013 0.15 1.27 5.08 25 OUTLET
S204 0.013 0.15 1.27 5.08 25 OUTLET
S205 0.013 0.15 1.27 5.08 25 OUTLET
S206 0.013 0.15 1.27 5.08 25 OUTLET
S207 0.013 0.15 1.27 5.08 25 OUTLET
S208 0.013 0.15 1.27 5.08 25 OUTLET
S209 0.013 0.15 1.27 5.08 25 OUTLET
S211 0.013 0.15 1.27 5.08 25 OUTLET
S212 0.013 0.15 1.27 5.08 25 OUTLET
S213 0.013 0.15 1.27 5.08 25 OUTLET
S214 0.013 0.15 1.27 5.08 25 OUTLET
S215 0.013 0.15 1.27 5.08 25 OUTLET
S216 0.013 0.15 1.27 5.08 25 OUTLET
S217 0.013 0.15 1.27 5.08 25 OUTLET
S218 0.013 0.15 1.27 5.08 25 OUTLET
S220 0.013 0.15 1.27 5.08 25 OUTLET
S221 0.013 0.15 1.27 5.08 25 OUTLET
S223 0.013 0.15 1.27 5.08 25 OUTLET
S224 0.013 0.15 1.27 5.08 25 OUTLET
S225 0.013 0.15 1.27 5.08 25 OUTLET
S226 0.013 0.15 1.27 5.08 25 OUTLET
S227 0.013 0.15 1.27 5.08 25 OUTLET
S228 0.013 0.15 1.27 5.08 25 OUTLET
S229 0.013 0.15 1.27 5.08 25 OUTLET
S230 0.013 0.15 1.27 5.08 25 OUTLET
S231 0.013 0.15 1.27 5.08 25 OUTLET
S232 0.013 0.15 1.27 5.08 25 OUTLET
S233 0.013 0.15 1.27 5.08 25 OUTLET
S234 0.013 0.15 1.27 5.08 25 OUTLET
S235 0.013 0.15 1.27 5.08 25 OUTLET
S236 0.013 0.15 1.27 5.08 25 OUTLET
S237 0.013 0.15 1.27 5.08 25 OUTLET
S238 0.013 0.15 1.27 5.08 25 OUTLET
S239 0.013 0.15 1.27 5.08 25 OUTLET
S240 0.013 0.15 1.27 5.08 25 OUTLET
S241 0.013 0.15 1.27 5.08 25 OUTLET
S242 0.013 0.15 1.27 5.08 25 OUTLET
S243 0.013 0.15 1.27 5.08 25 OUTLET
S244 0.013 0.15 1.27 5.08 25 OUTLET
S245 0.013 0.15 1.27 5.08 25 OUTLET
S246 0.013 0.15 1.27 5.08 25 OUTLET
S247 0.013 0.15 1.27 5.08 25 OUTLET
S248 0.013 0.15 1.27 5.08 25 OUTLET
S249 0.013 0.15 1.27 5.08 25 OUTLET
S250 0.013 0.15 1.27 5.08 25 OUTLET
S251 0.013 0.15 1.27 5.08 25 OUTLET
S252 0.013 0.15 1.27 5.08 25 OUTLET
S253 0.013 0.15 1.27 5.08 25 OUTLET
S254 0.013 0.15 1.27 5.08 25 OUTLET
S255 0.013 0.15 1.27 5.08 25 OUTLET
S256 0.013 0.15 1.27 5.08 25 OUTLET
S257 0.013 0.15 1.27 5.08 25 OUTLET
S258 0.013 0.15 1.27 5.08 25 OUTLET
S259 0.013 0.15 1.27 5.08 25 OUTLET
S260 0.013 0.15 1.27 5.08 25 OUTLET
S261 0.013 0.15 1.27 5.08 25 OUTLET
S262 0.013 0.15 1.27 5.08 25 OUTLET
S263 0.013 0.15 1.27 5.08 25 OUTLET
S264 0.013 0.15 1.27 5.08 25 OUTLET
S265 0.013 0.15 1.27 5.08 25 OUTLET
S266 0.013 0.15 1.27 5.08 25 OUTLET
S268 0.013 0.15 1.27 5.08 25 OUTLET
S269 0.013 0.15 1.27 5.08 25 OUTLET
S270 0.013 0.15 1.27 5.08 25 OUTLET
S272 0.013 0.15 1.27 5.08 25 OUTLET
S273 0.013 0.15 1.27 5.08 25 OUTLET
S274 0.013 0.15 1.27 5.08 25 OUTLET
S275 0.013 0.15 1.27 5.08 25 OUTLET
S276 0.013 0.15 1.27 5.08 25 OUTLET
S277 0.013 0.15 1.27 5.08 25 OUTLET
S278 0.013 0.15 1.27 5.08 25 OUTLET
S279 0.013 0.15 1.27 5.08 25 OUTLET
S280 0.013 0.15 1.27 5.08 25 OUTLET
S281 0.013 0.15 1.27 5.08 25 OUTLET
S282 0.013 0.15 1.27 5.08 25 OUTLET
S283 0.013 0.15 1.27 5.08 25 OUTLET
S284 0.013 0.15 1.27 5.08 25 OUTLET
S285 0.013 0.15 1.27 5.08 25 OUTLET
S286 0.013 0.15 1.27 5.08 25 OUTLET
S287 0.013 0.15 1.27 5.08 25 OUTLET
S288 0.013 0.15 1.27 5.08 25 OUTLET
S289 0.013 0.15 1.27 5.08 25 OUTLET
S290 0.013 0.15 1.27 5.08 25 OUTLET
S291 0.013 0.15 1.27 5.08 25 OUTLET
S292 0.013 0.15 1.27 5.08 25 OUTLET
S293 0.013 0.15 1.27 5.08 25 OUTLET
S294 0.013 0.15 1.27 5.08 25 OUTLET
S295 0.013 0.15 1.27 5.08 25 OUTLET
S296 0.013 0.15 1.27 5.08 25 OUTLET
S297 0.013 0.15 1.27 5.08 25 OUTLET
S298 0.013 0.15 1.27 5.08 25 OUTLET
S299 0.013 0.15 1.27 5.08 25 OUTLET
S300 0.013 0.15 1.27 5.08 25 OUTLET
S301 0.013 0.15 1.27 5.08 25 OUTLET
S302 0.013 0.15 1.27 5.08 25 OUTLET
S303 0.013 0.15 1.27 5.08 25 OUTLET
S304 0.013 0.15 1.27 5.08 25 OUTLET
S305 0.013 0.15 1.27 5.08 25 OUTLET
S306 0.013 0.15 1.27 5.08 25 OUTLET
S307 0.013 0.15 1.27 5.08 25 OUTLET
S308 0.013 0.15 1.27 5.08 25 OUTLET
S309 0.013 0.15 1.27 5.08 25 OUTLET
S310 0.013 0.15 1.27 5.08 25 OUTLET
S311 0.013 0.15 1.27 5.08 25 OUTLET
S312 0.013 0.15 1.27 5.08 25 OUTLET
S313 0.013 0.15 1.27 5.08 25 OUTLET
S314 0.013 0.15 1.27 5.08 25 OUTLET
S315 0.013 0.15 1.27 5.08 25 OUTLET
S316 0.013 0.15 1.27 5.08 25 OUTLET
S317 0.013 0.15 1.27 5.08 25 OUTLET
S318 0.013 0.15 1.27 5.08 25 OUTLET
S319 0.013 0.15 1.27 5.08 25 OUTLET
S320 0.013 0.15 1.27 5.08 25 OUTLET
S321 0.013 0.15 1.27 5.08 25 OUTLET
S322 0.013 0.15 1.27 5.08 25 OUTLET
S323 0.013 0.15 1.27 5.08 25 OUTLET
S324 0.013 0.15 1.27 5.08 25 OUTLET
S325 0.013 0.15 1.27 5.08 25 OUTLET
S326 0.013 0.15 1.27 5.08 25 OUTLET
S327 0.013 0.15 1.27 5.08 25 OUTLET
S328 0.013 0.15 1.27 5.08 25 OUTLET
S329 0.013 0.15 1.27 5.08 25 OUTLET
S330 0.013 0.15 1.27 5.08 25 OUTLET
S332 0.013 0.15 1.27 5.08 25 OUTLET
S334 0.013 0.15 1.27 5.08 25 OUTLET
S335 0.013 0.15 1.27 5.08 25 OUTLET
S336 0.013 0.15 1.27 5.08 25 OUTLET
S337 0.013 0.15 1.27 5.08 25 OUTLET
S338 0.013 0.15 1.27 5.08 25 OUTLET
S339 0.013 0.15 1.27 5.08 25 OUTLET
S340 0.013 0.15 1.27 5.08 25 OUTLET
S341 0.013 0.15 1.27 5.08 25 OUTLET
S342 0.013 0.15 1.27 5.08 25 OUTLET
S343 0.013 0.15 1.27 5.08 25 OUTLET
S344 0.013 0.15 1.27 5.08 25 OUTLET
S345 0.013 0.15 1.27 5.08 25 OUTLET
S346 0.013 0.15 1.27 5.08 25 OUTLET
S347 0.013 0.15 1.27 5.08 25 OUTLET
S348 0.013 0.15 1.27 5.08 25 OUTLET
S349 0.013 0.15 1.27 5.08 25 OUTLET
S350 0.013 0.15 1.27 5.08 25 OUTLET
S351 0.013 0.15 1.27 5.08 25 OUTLET
S352 0.013 0.15 1.27 5.08 25 OUTLET
S353 0.013 0.15 1.27 5.08 25 OUTLET
S354 0.013 0.15 1.27 5.08 25 OUTLET
S355 0.013 0.15 1.27 5.08 25 OUTLET
S356 0.013 0.15 1.27 5.08 25 OUTLET
S357 0.013 0.15 1.27 5.08 25 OUTLET
S358 0.013 0.15 1.27 5.08 25 OUTLET
S359 0.013 0.15 1.27 5.08 25 OUTLET
S360 0.013 0.15 1.27 5.08 25 OUTLET
S361 0.013 0.15 1.27 5.08 25 OUTLET
S363 0.013 0.15 1.27 5.08 25 OUTLET
S364 0.013 0.15 1.27 5.08 25 OUTLET
S365 0.013 0.15 1.27 5.08 25 OUTLET
S366 0.013 0.15 1.27 5.08 25 OUTLET
S367 0.013 0.15 1.27 5.08 25 OUTLET
S368 0.013 0.15 1.27 5.08 25 OUTLET
S369 0.013 0.15 1.27 5.08 25 OUTLET
S371 0.013 0.15 1.27 5.08 25 OUTLET
S372 0.013 0.15 1.27 5.08 25 OUTLET
S373 0.013 0.15 1.27 5.08 25 OUTLET
S375 0.013 0.15 1.27 5.08 25 OUTLET
S376 0.013 0.15 1.27 5.08 25 OUTLET
S377 0.013 0.15 1.27 5.08 25 OUTLET
S378 0.013 0.15 1.27 5.08 25 OUTLET
S379 0.013 0.15 1.27 5.08 25 OUTLET
S380 0.013 0.15 1.27 5.08 25 OUTLET
S381 0.013 0.15 1.27 5.08 25 OUTLET
S386 0.013 0.15 1.27 5.08 25 OUTLET
S388 0.013 0.15 1.27 5.08 25 OUTLET
S390 0.013 0.15 1.27 5.08 25 OUTLET
S391 0.013 0.15 1.27 5.08 25 OUTLET
S392 0.013 0.15 1.27 5.08 25 OUTLET
S394 0.013 0.15 1.27 5.08 25 OUTLET
S395 0.013 0.15 1.27 5.08 25 OUTLET
S396 0.013 0.15 1.27 5.08 25 OUTLET
S397 0.013 0.15 1.27 5.08 25 OUTLET
S398 0.013 0.15 1.27 5.08 25 OUTLET
S399 0.013 0.15 1.27 5.08 25 OUTLET
S400 0.013 0.15 1.27 5.08 25 OUTLET
S401 0.013 0.15 1.27 5.08 25 OUTLET
S402 0.013 0.15 1.27 5.08 25 OUTLET
S403 0.013 0.15 1.27 5.08 25 OUTLET
S404 0.013 0.15 1.27 5.08 25 OUTLET
S405 0.013 0.15 1.27 5.08 25 OUTLET
S406 0.013 0.15 1.27 5.08 25 OUTLET
S407 0.013 0.15 1.27 5.08 25 OUTLET
S408 0.013 0.15 1.27 5.08 25 OUTLET
S409 0.013 0.15 1.27 5.08 25 OUTLET
S410 0.013 0.15 1.27 5.08 25 OUTLET
S411 0.013 0.15 1.27 5.08 25 OUTLET
S412 0.013 0.15 1.27 5.08 25 OUTLET
S413 0.013 0.15 1.27 5.08 25 OUTLET
S414 0.013 0.15 1.27 5.08 25 OUTLET
S415 0.013 0.15 1.27 5.08 25 OUTLET
S418 0.013 0.15 1.27 5.08 25 OUTLET
S419 0.013 0.15 1.27 5.08 25 OUTLET
S420 0.013 0.15 1.27 5.08 25 OUTLET
S421 0.013 0.15 1.27 5.08 25 OUTLET
S422 0.013 0.15 1.27 5.08 25 OUTLET
S423 0.013 0.15 1.27 5.08 25 OUTLET
S424 0.013 0.15 1.27 5.08 25 OUTLET
S425 0.013 0.15 1.27 5.08 25 OUTLET
S426 0.013 0.15 1.27 5.08 25 OUTLET
S427 0.013 0.15 1.27 5.08 25 OUTLET
S428 0.013 0.15 1.27 5.08 25 OUTLET
S429 0.013 0.15 1.27 5.08 25 OUTLET
S430 0.013 0.15 1.27 5.08 25 OUTLET
S431 0.013 0.15 1.27 5.08 25 OUTLET
S432 0.013 0.15 1.27 5.08 25 OUTLET
S436 0.013 0.15 1.27 5.08 25 OUTLET
S437 0.013 0.15 1.27 5.08 25 OUTLET
S438 0.013 0.15 1.27 5.08 25 OUTLET
S439 0.013 0.15 1.27 5.08 25 OUTLET
S440 0.013 0.15 1.27 5.08 25 OUTLET
S441 0.013 0.15 1.27 5.08 25 OUTLET
S442 0.013 0.15 1.27 5.08 25 OUTLET
S443 0.013 0.15 1.27 5.08 25 OUTLET
S444 0.013 0.15 1.27 5.08 25 OUTLET
S445 0.013 0.15 1.27 5.08 25 OUTLET
S446 0.013 0.15 1.27 5.08 25 OUTLET
S447 0.013 0.15 1.27 5.08 25 OUTLET
S448 0.013 0.15 1.27 5.08 25 OUTLET
S449 0.013 0.15 1.27 5.08 25 OUTLET
S450 0.013 0.15 1.27 5.08 25 OUTLET
S451 0.013 0.15 1.27 5.08 25 OUTLET
S452 0.013 0.15 1.27 5.08 25 OUTLET
S453 0.013 0.15 1.27 5.08 25 OUTLET
S454 0.013 0.15 1.27 5.08 25 OUTLET
S455 0.013 0.15 1.27 5.08 25 OUTLET
S456 0.013 0.15 1.27 5.08 25 OUTLET
S457 0.013 0.15 1.27 5.08 25 OUTLET
S458 0.013 0.15 1.27 5.08 25 OUTLET
S459 0.013 0.15 1.27 5.08 25 OUTLET
S460 0.013 0.15 1.27 5.08 25 OUTLET
S461 0.013 0.15 1.27 5.08 25 OUTLET
S462 0.013 0.15 1.27 5.08 25 OUTLET
S464 0.013 0.15 1.27 5.08 25 OUTLET
S465 0.013 0.15 1.27 5.08 25 OUTLET
S466 0.013 0.15 1.27 5.08 25 OUTLET
S467 0.013 0.15 1.27 5.08 25 OUTLET
S468 0.013 0.15 1.27 5.08 25 OUTLET
S469 0.013 0.15 1.27 5.08 25 OUTLET
S470 0.013 0.15 1.27 5.08 25 OUTLET
S471 0.013 0.15 1.27 5.08 25 OUTLET
S472 0.013 0.15 1.27 5.08 25 OUTLET
S473 0.013 0.15 1.27 5.08 25 OUTLET
S474 0.013 0.15 1.27 5.08 25 OUTLET
S475 0.013 0.15 1.27 5.08 25 OUTLET
S476 0.013 0.15 1.27 5.08 25 OUTLET
S477 0.013 0.15 1.27 5.08 25 OUTLET
S478 0.013 0.15 1.27 5.08 25 OUTLET
S479 0.013 0.15 1.27 5.08 25 OUTLET
S480 0.013 0.15 1.27 5.08 25 OUTLET
S481 0.013 0.15 1.27 5.08 25 OUTLET
S482 0.013 0.15 1.27 5.08 25 OUTLET
S483 0.013 0.15 1.27 5.08 25 OUTLET
S485 0.013 0.15 1.27 5.08 25 OUTLET
S486 0.013 0.15 1.27 5.08 25 OUTLET
S487 0.013 0.15 1.27 5.08 25 OUTLET
S490 0.013 0.15 1.27 5.08 25 OUTLET
S491 0.013 0.15 1.27 5.08 25 OUTLET
S492 0.013 0.15 1.27 5.08 25 OUTLET
S493 0.013 0.15 1.27 5.08 25 OUTLET
S494 0.013 0.15 1.27 5.08 25 OUTLET
S495 0.013 0.15 1.27 5.08 25 OUTLET
S496 0.013 0.15 1.27 5.08 25 OUTLET
S497 0.013 0.15 1.27 5.08 25 OUTLET
S498 0.013 0.15 1.27 5.08 25 OUTLET
S499 0.013 0.15 1.27 5.08 25 OUTLET
S500 0.013 0.15 1.27 5.08 25 OUTLET
S501 0.013 0.15 1.27 5.08 25 OUTLET
S502 0.013 0.15 1.27 5.08 25 OUTLET
S503 0.013 0.15 1.27 5.08 25 OUTLET
S505 0.013 0.15 1.27 5.08 25 OUTLET
S506 0.013 0.15 1.27 5.08 25 OUTLET
S507 0.013 0.15 1.27 5.08 25 OUTLET
S510 0.013 0.15 1.27 5.08 25 OUTLET
S511 0.013 0.15 1.27 5.08 25 OUTLET
S512 0.013 0.15 1.27 5.08 25 OUTLET
S513 0.013 0.15 1.27 5.08 25 OUTLET
S514 0.013 0.15 1.27 5.08 25 OUTLET
S515 0.013 0.15 1.27 5.08 25 OUTLET
S516 0.013 0.15 1.27 5.08 25 OUTLET
S518 0.013 0.15 1.27 5.08 25 OUTLET
S519 0.013 0.15 1.27 5.08 25 OUTLET
S521 0.013 0.15 1.27 5.08 25 OUTLET
S523 0.013 0.15 1.27 5.08 25 OUTLET
S524 0.013 0.15 1.27 5.08 25 OUTLET
S525 0.013 0.15 1.27 5.08 25 OUTLET
S526 0.013 0.15 1.27 5.08 25 OUTLET
S527 0.013 0.15 1.27 5.08 25 OUTLET
S528 0.013 0.15 1.27 5.08 25 OUTLET
S529 0.013 0.15 1.27 5.08 25 OUTLET
S530 0.013 0.15 1.27 5.08 25 OUTLET
S531 0.013 0.15 1.27 5.08 25 OUTLET
S532 0.013 0.15 1.27 5.08 25 OUTLET
S533 0.013 0.15 1.27 5.08 25 OUTLET
S534 0.013 0.15 1.27 5.08 25 OUTLET
S535 0.013 0.15 1.27 5.08 25 OUTLET
S536 0.013 0.15 1.27 5.08 25 OUTLET
S537 0.013 0.15 1.27 5.08 25 OUTLET
S538 0.013 0.15 1.27 5.08 25 OUTLET
S539 0.013 0.15 1.27 5.08 25 OUTLET
S540 0.013 0.15 1.27 5.08 25 OUTLET
S541 0.013 0.15 1.27 5.08 25 OUTLET
S542 0.013 0.15 1.27 5.08 25 OUTLET
S543 0.013 0.15 1.27 5.08 25 OUTLET
S546 0.013 0.15 1.27 5.08 25 OUTLET
S547 0.013 0.15 1.27 5.08 25 OUTLET
S548 0.013 0.15 1.27 5.08 25 OUTLET
S549 0.013 0.15 1.27 5.08 25 OUTLET
S550 0.013 0.15 1.27 5.08 25 OUTLET
S552 0.013 0.15 1.27 5.08 25 OUTLET
S553 0.013 0.15 1.27 5.08 25 OUTLET
S554 0.013 0.15 1.27 5.08 25 OUTLET
S555 0.013 0.15 1.27 5.08 25 OUTLET
S556 0.013 0.15 1.27 5.08 25 OUTLET
S557 0.013 0.15 1.27 5.08 25 OUTLET
S558 0.013 0.15 1.27 5.08 25 OUTLET
S559 0.013 0.15 1.27 5.08 25 OUTLET
S560 0.013 0.15 1.27 5.08 25 OUTLET
S561 0.013 0.15 1.27 5.08 25 OUTLET
S562 0.013 0.15 1.27 5.08 25 OUTLET
S563 0.013 0.15 1.27 5.08 25 OUTLET
S564 0.013 0.15 1.27 5.08 25 OUTLET
S565 0.013 0.15 1.27 5.08 25 OUTLET
S566 0.013 0.15 1.27 5.08 25 OUTLET
S567 0.013 0.15 1.27 5.08 25 OUTLET
S568 0.013 0.15 1.27 5.08 25 OUTLET
S569 0.013 0.15 1.27 5.08 25 OUTLET
S570 0.013 0.15 1.27 5.08 25 OUTLET
S571 0.013 0.15 1.27 5.08 25 OUTLET
S572 0.013 0.15 1.27 5.08 25 OUTLET
S573 0.013 0.15 1.27 5.08 25 OUTLET
S574 0.013 0.15 1.27 5.08 25 OUTLET
S575 0.013 0.15 1.27 5.08 25 OUTLET
S576 0.013 0.15 1.27 5.08 25 OUTLET
S577 0.013 0.15 1.27 5.08 25 OUTLET
S579 0.013 0.15 1.27 5.08 25 OUTLET
S580 0.013 0.15 1.27 5.08 25 OUTLET
S581 0.013 0.15 1.27 5.08 25 OUTLET
S582 0.013 0.15 1.27 5.08 25 OUTLET
S584 0.013 0.15 1.27 5.08 25 OUTLET
S585 0.013 0.15 1.27 5.08 25 OUTLET
S586 0.013 0.15 1.27 5.08 25 OUTLET
S587 0.013 0.15 1.27 5.08 25 OUTLET
S588 0.013 0.15 1.27 5.08 25 OUTLET
S590 0.013 0.15 1.27 5.08 25 OUTLET
S591 0.013 0.15 1.27 5.08 25 OUTLET
S592 0.013 0.15 1.27 5.08 25 OUTLET
S593 0.013 0.15 1.27 5.08 25 OUTLET
S594 0.013 0.15 1.27 5.08 25 OUTLET
S595 0.013 0.15 1.27 5.08 25 OUTLET
S596 0.013 0.15 1.27 5.08 25 OUTLET
S597 0.013 0.15 1.27 5.08 25 OUTLET
S598 0.013 0.15 1.27 5.08 25 OUTLET
S599 0.013 0.15 1.27 5.08 25 OUTLET
S600 0.013 0.15 1.27 5.08 25 OUTLET
S601 0.013 0.15 1.27 5.08 25 OUTLET
S602 0.013 0.15 1.27 5.08 25 OUTLET
S603 0.013 0.15 1.27 5.08 25 OUTLET
S604 0.013 0.15 1.27 5.08 25 OUTLET
S605 0.013 0.15 1.27 5.08 25 OUTLET
S606 0.013 0.15 1.27 5.08 25 OUTLET
S607 0.013 0.15 1.27 5.08 25 OUTLET
S608 0.013 0.15 1.27 5.08 25 OUTLET
S610 0.013 0.15 1.27 5.08 25 OUTLET
S611 0.013 0.15 1.27 5.08 25 OUTLET
S612 0.013 0.15 1.27 5.08 25 OUTLET
S613 0.013 0.15 1.27 5.08 25 OUTLET
S614 0.013 0.15 1.27 5.08 25 OUTLET
S615 0.013 0.15 1.27 5.08 25 OUTLET
S616 0.013 0.15 1.27 5.08 25 OUTLET
S617 0.013 0.15 1.27 5.08 25 OUTLET
S618 0.013 0.15 1.27 5.08 25 OUTLET
S620 0.013 0.15 1.27 5.08 25 OUTLET
S621 0.013 0.15 1.27 5.08 25 OUTLET
S622 0.013 0.15 1.27 5.08 25 OUTLET
S623 0.013 0.15 1.27 5.08 25 OUTLET
S624 0.013 0.15 1.27 5.08 25 OUTLET
S625 0.013 0.15 1.27 5.08 25 OUTLET
S626 0.013 0.15 1.27 5.08 25 OUTLET
S627 0.013 0.15 1.27 5.08 25 OUTLET
S628 0.013 0.15 1.27 5.08 25 OUTLET
S629 0.013 0.15 1.27 5.08 25 OUTLET
S630 0.013 0.15 1.27 5.08 25 OUTLET
S632 0.013 0.15 1.27 5.08 25 OUTLET
S633 0.013 0.15 1.27 5.08 25 OUTLET
S634 0.013 0.15 1.27 5.08 25 OUTLET
S635 0.013 0.15 1.27 5.08 25 OUTLET
S636 0.013 0.15 1.27 5.08 25 OUTLET
S637 0.013 0.15 1.27 5.08 25 OUTLET
S638 0.013 0.15 1.27 5.08 25 OUTLET
S639 0.013 0.15 1.27 5.08 25 OUTLET
S640 0.013 0.15 1.27 5.08 25 OUTLET
S641 0.013 0.15 1.27 5.08 25 OUTLET
S642 0.013 0.15 1.27 5.08 25 OUTLET
S643 0.013 0.15 1.27 5.08 25 OUTLET
S645 0.013 0.15 1.27 5.08 25 OUTLET
S646 0.013 0.15 1.27 5.08 25 OUTLET
S647 0.013 0.15 1.27 5.08 25 OUTLET
S649 0.013 0.15 1.27 5.08 25 OUTLET
S650 0.013 0.15 1.27 5.08 25 OUTLET
S651 0.013 0.15 1.27 5.08 25 OUTLET
S652 0.013 0.15 1.27 5.08 25 OUTLET
S653 0.013 0.15 1.27 5.08 25 OUTLET
S654 0.013 0.15 1.27 5.08 25 OUTLET
S655 0.013 0.15 1.27 5.08 25 OUTLET
S656 0.013 0.15 1.27 5.08 25 OUTLET
S657 0.013 0.15 1.27 5.08 25 OUTLET
S658 0.013 0.15 1.27 5.08 25 OUTLET
S659 0.013 0.15 1.27 5.08 25 OUTLET
S660 0.013 0.15 1.27 5.08 25 OUTLET
S661 0.013 0.15 1.27 5.08 25 OUTLET
S663 0.013 0.15 1.27 5.08 25 OUTLET
S664 0.013 0.15 1.27 5.08 25 OUTLET
S665 0.013 0.15 1.27 5.08 25 OUTLET
S666 0.013 0.15 1.27 5.08 25 OUTLET
S668 0.013 0.15 1.27 5.08 25 OUTLET
S669 0.013 0.15 1.27 5.08 25 OUTLET
S670 0.013 0.15 1.27 5.08 25 OUTLET
S671 0.013 0.15 1.27 5.08 25 OUTLET
S673 0.013 0.15 1.27 5.08 25 OUTLET
S674 0.013 0.15 1.27 5.08 25 OUTLET
S675 0.013 0.15 1.27 5.08 25 OUTLET
S676 0.013 0.15 1.27 5.08 25 OUTLET
S677 0.013 0.15 1.27 5.08 25 OUTLET
S678 0.013 0.15 1.27 5.08 25 OUTLET
S679 0.013 0.15 1.27 5.08 25 OUTLET
S680 0.013 0.15 1.27 5.08 25 OUTLET
S681 0.013 0.15 1.27 5.08 25 OUTLET
S683 0.013 0.15 1.27 5.08 25 OUTLET
S684 0.013 0.15 1.27 5.08 25 OUTLET
S685 0.013 0.15 1.27 5.08 25 OUTLET
S687 0.013 0.15 1.27 5.08 25 OUTLET
S688 0.013 0.15 1.27 5.08 25 OUTLET
S690 0.013 0.15 1.27 5.08 25 OUTLET
S692 0.013 0.15 1.27 5.08 25 OUTLET
S693 0.013 0.15 1.27 5.08 25 OUTLET
S694 0.013 0.15 1.27 5.08 25 OUTLET
S696 0.013 0.15 1.27 5.08 25 OUTLET
S697 0.013 0.15 1.27 5.08 25 OUTLET
S699 0.013 0.15 1.27 5.08 25 OUTLET
S700 0.013 0.15 1.27 5.08 25 OUTLET
S701 0.013 0.15 1.27 5.08 25 OUTLET
S702 0.013 0.15 1.27 5.08 25 OUTLET
S703 0.013 0.15 1.27 5.08 25 OUTLET
S704 0.013 0.15 1.27 5.08 25 OUTLET
S706 0.013 0.15 1.27 5.08 25 OUTLET
S707 0.013 0.15 1.27 5.08 25 OUTLET
S708 0.013 0.15 1.27 5.08 25 OUTLET
S709 0.013 0.15 1.27 5.08 25 OUTLET
S710 0.013 0.15 1.27 5.08 25 OUTLET
S712 0.013 0.15 1.27 5.08 25 OUTLET
S714 0.013 0.15 1.27 5.08 25 OUTLET
S715 0.013 0.15 1.27 5.08 25 OUTLET
S716 0.013 0.15 1.27 5.08 25 OUTLET
S717 0.013 0.15 1.27 5.08 25 OUTLET
S718 0.013 0.15 1.27 5.08 25 OUTLET
S720 0.013 0.15 1.27 5.08 25 OUTLET
S721 0.013 0.15 1.27 5.08 25 OUTLET
S722 0.013 0.15 1.27 5.08 25 OUTLET
S723 0.013 0.15 1.27 5.08 25 OUTLET
S724 0.013 0.15 1.27 5.08 25 OUTLET
S725 0.013 0.15 1.27 5.08 25 OUTLET
S726 0.013 0.15 1.27 5.08 25 OUTLET
S727 0.013 0.15 1.27 5.08 25 OUTLET
S728 0.013 0.15 1.27 5.08 25 OUTLET
S729 0.013 0.15 1.27 5.08 25 OUTLET
S730 0.013 0.15 1.27 5.08 25 OUTLET
S731 0.013 0.15 1.27 5.08 25 OUTLET
S732 0.013 0.15 1.27 5.08 25 OUTLET
S733 0.013 0.15 1.27 5.08 25 OUTLET
S735 0.013 0.15 1.27 5.08 25 OUTLET
S736 0.013 0.15 1.27 5.08 25 OUTLET
S738 0.013 0.15 1.27 5.08 25 OUTLET
S739 0.013 0.15 1.27 5.08 25 OUTLET
S741 0.013 0.15 1.27 5.08 25 OUTLET
S742 0.013 0.15 1.27 5.08 25 OUTLET
S743 0.013 0.15 1.27 5.08 25 OUTLET
S745 0.013 0.15 1.27 5.08 25 OUTLET
S746 0.013 0.15 1.27 5.08 25 OUTLET
S747 0.013 0.15 1.27 5.08 25 OUTLET
S749 0.013 0.15 1.27 5.08 25 OUTLET
S750 0.013 0.15 1.27 5.08 25 OUTLET
S752 0.013 0.15 1.27 5.08 25 OUTLET
S753 0.013 0.15 1.27 5.08 25 OUTLET
S754 0.013 0.15 1.27 5.08 25 OUTLET
S755 0.013 0.15 1.27 5.08 25 OUTLET
S756 0.013 0.15 1.27 5.08 25 OUTLET
S757 0.013 0.15 1.27 5.08 25 OUTLET
S758 0.013 0.15 1.27 5.08 25 OUTLET
S760 0.013 0.15 1.27 5.08 25 OUTLET
S761 0.013 0.15 1.27 5.08 25 OUTLET
S762 0.013 0.15 1.27 5.08 25 OUTLET
S763 0.013 0.15 1.27 5.08 25 OUTLET
S764 0.013 0.15 1.27 5.08 25 OUTLET
S765 0.013 0.15 1.27 5.08 25 OUTLET
S766 0.013 0.15 1.27 5.08 25 OUTLET
S767 0.013 0.15 1.27 5.08 25 OUTLET
S768 0.013 0.15 1.27 5.08 25 OUTLET
S769 0.013 0.15 1.27 5.08 25 OUTLET
S772 0.013 0.15 1.27 5.08 25 OUTLET
S775 0.013 0.15 1.27 5.08 25 OUTLET
S776 0.013 0.15 1.27 5.08 25 OUTLET
S778 0.013 0.15 1.27 5.08 25 OUTLET
S779 0.013 0.15 1.27 5.08 25 OUTLET
S780 0.013 0.15 1.27 5.08 25 OUTLET
S781 0.013 0.15 1.27 5.08 25 OUTLET
S782 0.013 0.15 1.27 5.08 25 OUTLET
S783 0.013 0.15 1.27 5.08 25 OUTLET
S784 0.013 0.15 1.27 5.08 25 OUTLET
S785 0.013 0.15 1.27 5.08 25 OUTLET
S786 0.013 0.15 1.27 5.08 25 OUTLET
S788 0.013 0.15 1.27 5.08 25 OUTLET
S793 0.013 0.15 1.27 5.08 25 OUTLET
S794 0.013 0.15 1.27 5.08 25 OUTLET
S796 0.013 0.15 1.27 5.08 25 OUTLET
S799 0.013 0.15 1.27 5.08 25 OUTLET
S803 0.013 0.15 1.27 5.08 25 OUTLET
S804 0.013 0.15 1.27 5.08 25 OUTLET
S805 0.013 0.15 1.27 5.08 25 OUTLET
S806 0.013 0.15 1.27 5.08 25 OUTLET
S807 0.013 0.15 1.27 5.08 25 OUTLET
S808 0.013 0.15 1.27 5.08 25 OUTLET
S810 0.013 0.15 1.27 5.08 25 OUTLET
S812 0.013 0.15 1.27 5.08 25 OUTLET
S813 0.013 0.15 1.27 5.08 25 OUTLET
S816 0.013 0.15 1.27 5.08 25 OUTLET
S818 0.013 0.15 1.27 5.08 25 OUTLET
S819 0.013 0.15 1.27 5.08 25 OUTLET
S822 0.013 0.15 1.27 5.08 25 OUTLET
S823 0.013 0.15 1.27 5.08 25 OUTLET
S826 0.013 0.15 1.27 5.08 25 OUTLET
S827 0.013 0.15 1.27 5.08 25 OUTLET
S828 0.013 0.15 1.27 5.08 25 OUTLET
S829 0.013 0.15 1.27 5.08 25 OUTLET
S836 0.013 0.15 1.27 5.08 25 OUTLET
S837 0.013 0.15 1.27 5.08 25 OUTLET
S841 0.013 0.15 1.27 5.08 25 OUTLET
S842 0.013 0.15 1.27 5.08 25 OUTLET
S846 0.013 0.15 1.27 5.08 25 OUTLET
S849 0.013 0.15 1.27 5.08 25 OUTLET
S850 0.013 0.15 1.27 5.08 25 OUTLET
S851 0.013 0.15 1.27 5.08 25 OUTLET
S856 0.013 0.15 1.27 5.08 25 OUTLET
S857 0.013 0.15 1.27 5.08 25 OUTLET
S858 0.013 0.15 1.27 5.08 25 OUTLET
S859 0.013 0.15 1.27 5.08 25 OUTLET
S860 0.013 0.15 1.27 5.08 25 OUTLET
S861 0.013 0.15 1.27 5.08 25 OUTLET
S863 0.013 0.15 1.27 5.08 25 OUTLET
S871 0.013 0.15 1.27 5.08 25 OUTLET
S872 0.013 0.15 1.27 5.08 25 OUTLET
S873 0.013 0.15 1.27 5.08 25 OUTLET
S874 0.013 0.15 1.27 5.08 25 OUTLET
S879 0.013 0.15 1.27 5.08 25 OUTLET
S880 0.013 0.15 1.27 5.08 25 OUTLET
S881 0.013 0.15 1.27 5.08 25 OUTLET
S882 0.013 0.15 1.27 5.08 25 OUTLET
S886 0.013 0.15 1.27 5.08 25 OUTLET
S889 0.013 0.15 1.27 5.08 25 OUTLET
S890 0.013 0.15 1.27 5.08 25 OUTLET
S893 0.013 0.15 1.27 5.08 25 OUTLET
S894 0.013 0.15 1.27 5.08 25 OUTLET
S895 0.013 0.15 1.27 5.08 25 OUTLET
S896 0.013 0.15 1.27 5.08 25 OUTLET
S897 0.013 0.15 1.27 5.08 25 OUTLET
S898 0.013 0.15 1.27 5.08 25 OUTLET
S899 0.013 0.15 1.27 5.08 25 OUTLET
S909 0.013 0.15 1.27 5.08 25 OUTLET
S913 0.013 0.15 1.27 5.08 25 OUTLET
S914 0.013 0.15 1.27 5.08 25 OUTLET
S915 0.013 0.15 1.27 5.08 25 OUTLET
S917 0.013 0.15 1.27 5.08 25 OUTLET
S918 0.013 0.15 1.27 5.08 25 OUTLET
S919 0.013 0.15 1.27 5.08 25 OUTLET
S920 0.013 0.15 1.27 5.08 25 OUTLET
S921 0.013 0.15 1.27 5.08 25 OUTLET
S923 0.013 0.15 1.27 5.08 25 OUTLET
S924 0.013 0.15 1.27 5.08 25 OUTLET
S925 0.013 0.15 1.27 5.08 25 OUTLET
S927 0.013 0.15 1.27 5.08 25 OUTLET
S928 0.013 0.15 1.27 5.08 25 OUTLET
S933 0.013 0.15 1.27 5.08 25 OUTLET
S942 0.013 0.15 1.27 5.08 25 OUTLET
S944 0.013 0.15 1.27 5.08 25 OUTLET
S945 0.013 0.15 1.27 5.08 25 OUTLET
S947 0.013 0.15 1.27 5.08 25 OUTLET
S949 0.013 0.15 1.27 5.08 25 OUTLET
S950 0.013 0.15 1.27 5.08 25 OUTLET
S951 0.013 0.15 1.27 5.08 25 OUTLET
S952 0.013 0.15 1.27 5.08 25 OUTLET
S958 0.013 0.15 1.27 5.08 25 OUTLET
S961 0.013 0.15 1.27 5.08 25 OUTLET
S964 0.013 0.15 1.27 5.08 25 OUTLET
S966 0.013 0.15 1.27 5.08 25 OUTLET
S969 0.013 0.15 1.27 5.08 25 OUTLET
S972 0.013 0.15 1.27 5.08 25 OUTLET
S973 0.013 0.15 1.27 5.08 25 OUTLET
S974 0.013 0.15 1.27 5.08 25 OUTLET
S975 0.013 0.15 1.27 5.08 25 OUTLET
S976 0.013 0.15 1.27 5.08 25 OUTLET
S977 0.013 0.15 1.27 5.08 25 OUTLET
S979 0.013 0.15 1.27 5.08 25 OUTLET
S981 0.013 0.15 1.27 5.08 25 OUTLET
S983 0.013 0.15 1.27 5.08 25 OUTLET
S984 0.013 0.15 1.27 5.08 25 OUTLET
S985 0.013 0.15 1.27 5.08 25 OUTLET
S988 0.013 0.15 1.27 5.08 25 OUTLET
S989 0.013 0.15 1.27 5.08 25 OUTLET
S992 0.013 0.15 1.27 5.08 25 OUTLET
S993 0.013 0.15 1.27 5.08 25 OUTLET
S998 0.013 0.15 1.27 5.08 25 OUTLET
S1006 0.013 0.15 1.27 5.08 25 OUTLET
S1007 0.013 0.15 1.27 5.08 25 OUTLET
S1010 0.013 0.15 1.27 5.08 25 OUTLET
S1011 0.013 0.15 1.27 5.08 25 OUTLET
S1012 0.013 0.15 1.27 5.08 25 OUTLET
S1013 0.013 0.15 1.27 5.08 25 OUTLET
S1014 0.013 0.15 1.27 5.08 25 OUTLET
S1015 0.013 0.15 1.27 5.08 25 OUTLET
S1016 0.013 0.15 1.27 5.08 25 OUTLET
S1017 0.013 0.15 1.27 5.08 25 OUTLET
S1018 0.013 0.15 1.27 5.08 25 OUTLET
S1019 0.013 0.15 1.27 5.08 25 OUTLET
S1020 0.013 0.15 1.27 5.08 25 OUTLET
S1021 0.013 0.15 1.27 5.08 25 OUTLET
S1024 0.013 0.15 1.27 5.08 25 OUTLET
S1025 0.013 0.15 1.27 5.08 25 OUTLET
S1026 0.013 0.15 1.27 5.08 25 OUTLET
S1027 0.013 0.15 1.27 5.08 25 OUTLET
S1033 0.013 0.15 1.27 5.08 25 OUTLET
S1034 0.013 0.15 1.27 5.08 25 OUTLET
S1035 0.013 0.15 1.27 5.08 25 OUTLET
S1036 0.013 0.15 1.27 5.08 25 OUTLET
S1038 0.013 0.15 1.27 5.08 25 OUTLET
S1039 0.013 0.15 1.27 5.08 25 OUTLET
S1040 0.013 0.15 1.27 5.08 25 OUTLET
S1042 0.013 0.15 1.27 5.08 25 OUTLET
S1044 0.013 0.15 1.27 5.08 25 OUTLET
S1045 0.013 0.15 1.27 5.08 25 OUTLET
S1047 0.013 0.15 1.27 5.08 25 OUTLET
S1048 0.013 0.15 1.27 5.08 25 OUTLET
S1049 0.013 0.15 1.27 5.08 25 OUTLET
S1050 0.013 0.15 1.27 5.08 25 OUTLET
S1051 0.013 0.15 1.27 5.08 25 OUTLET
S1055 0.013 0.15 1.27 5.08 25 OUTLET
S1057 0.013 0.15 1.27 5.08 25 OUTLET
S1058 0.013 0.15 1.27 5.08 25 OUTLET
S1059 0.013 0.15 1.27 5.08 25 OUTLET
S1061 0.013 0.15 1.27 5.08 25 OUTLET
S1064 0.013 0.15 1.27 5.08 25 OUTLET
S1065 0.013 0.15 1.27 5.08 25 OUTLET
S1068 0.013 0.15 1.27 5.08 25 OUTLET
S1069 0.013 0.15 1.27 5.08 25 OUTLET
S1070 0.013 0.15 1.27 5.08 25 OUTLET
S1071 0.013 0.15 1.27 5.08 25 OUTLET
S1074 0.013 0.15 1.27 5.08 25 OUTLET
S1075 0.013 0.15 1.27 5.08 25 OUTLET
S1076 0.013 0.15 1.27 5.08 25 OUTLET
S1077 0.013 0.15 1.27 5.08 25 OUTLET
S1078 0.013 0.15 1.27 5.08 25 OUTLET
S1079 0.013 0.15 1.27 5.08 25 OUTLET
S1080 0.013 0.15 1.27 5.08 25 OUTLET
S1081 0.013 0.15 1.27 5.08 25 OUTLET
S1082 0.013 0.15 1.27 5.08 25 OUTLET
S1083 0.013 0.15 1.27 5.08 25 OUTLET
S1084 0.013 0.15 1.27 5.08 25 OUTLET
S1085 0.013 0.15 1.27 5.08 25 OUTLET
S1088 0.013 0.15 1.27 5.08 25 OUTLET
S1089 0.013 0.15 1.27 5.08 25 OUTLET
S1090 0.013 0.15 1.27 5.08 25 OUTLET
S1092 0.013 0.15 1.27 5.08 25 OUTLET
S1093 0.013 0.15 1.27 5.08 25 OUTLET
S1094 0.013 0.15 1.27 5.08 25 OUTLET
S1095 0.013 0.15 1.27 5.08 25 OUTLET
S1096 0.013 0.15 1.27 5.08 25 OUTLET
S1097 0.013 0.15 1.27 5.08 25 OUTLET
S1098 0.013 0.15 1.27 5.08 25 OUTLET
S1099 0.013 0.15 1.27 5.08 25 OUTLET
S1100 0.013 0.15 1.27 5.08 25 OUTLET
S1101 0.013 0.15 1.27 5.08 25 OUTLET
S1102 0.013 0.15 1.27 5.08 25 OUTLET
S1105 0.013 0.15 1.27 5.08 25 OUTLET
S1106 0.013 0.15 1.27 5.08 25 OUTLET
S1108 0.013 0.15 1.27 5.08 25 OUTLET
S1109 0.013 0.15 1.27 5.08 25 OUTLET
S1110 0.013 0.15 1.27 5.08 25 OUTLET
S1111 0.013 0.15 1.27 5.08 25 OUTLET
S1112 0.013 0.15 1.27 5.08 25 OUTLET
S1113 0.013 0.15 1.27 5.08 25 OUTLET
S1114 0.013 0.15 1.27 5.08 25 OUTLET
S1115 0.013 0.15 1.27 5.08 25 OUTLET
S1116 0.013 0.15 1.27 5.08 25 OUTLET
S1117 0.013 0.15 1.27 5.08 25 OUTLET
S1120 0.013 0.15 1.27 5.08 25 OUTLET
S1121 0.013 0.15 1.27 5.08 25 OUTLET
S1122 0.013 0.15 1.27 5.08 25 OUTLET
S1123 0.013 0.15 1.27 5.08 25 OUTLET
S1125 0.013 0.15 1.27 5.08 25 OUTLET
S1126 0.013 0.15 1.27 5.08 25 OUTLET
S1127 0.013 0.15 1.27 5.08 25 OUTLET
S1128 0.013 0.15 1.27 5.08 25 OUTLET
S1130 0.013 0.15 1.27 5.08 25 OUTLET
S1132 0.013 0.15 1.27 5.08 25 OUTLET
S1133 0.013 0.15 1.27 5.08 25 OUTLET
S1134 0.013 0.15 1.27 5.08 25 OUTLET
S1136 0.013 0.15 1.27 5.08 25 OUTLET
S1137 0.013 0.15 1.27 5.08 25 OUTLET
S1138 0.013 0.15 1.27 5.08 25 OUTLET
S1140 0.013 0.15 1.27 5.08 25 OUTLET
S1141 0.013 0.15 1.27 5.08 25 OUTLET
S1142 0.013 0.15 1.27 5.08 25 OUTLET
S1143 0.013 0.15 1.27 5.08 25 OUTLET
S1144 0.013 0.15 1.27 5.08 25 OUTLET
S1145 0.013 0.15 1.27 5.08 25 OUTLET
S1146 0.013 0.15 1.27 5.08 25 OUTLET
S1147 0.013 0.15 1.27 5.08 25 OUTLET
S1148 0.013 0.15 1.27 5.08 25 OUTLET
S1149 0.013 0.15 1.27 5.08 25 OUTLET
S1150 0.013 0.15 1.27 5.08 25 OUTLET
S1151 0.013 0.15 1.27 5.08 25 OUTLET
S1152 0.013 0.15 1.27 5.08 25 OUTLET
S1153 0.013 0.15 1.27 5.08 25 OUTLET
S1154 0.013 0.15 1.27 5.08 25 OUTLET
S1155 0.013 0.15 1.27 5.08 25 OUTLET
S1156 0.013 0.15 1.27 5.08 25 OUTLET
S1157 0.013 0.15 1.27 5.08 25 OUTLET
S1159 0.013 0.15 1.27 5.08 25 OUTLET
S1160 0.013 0.15 1.27 5.08 25 OUTLET
S1161 0.013 0.15 1.27 5.08 25 OUTLET
S1162 0.013 0.15 1.27 5.08 25 OUTLET
S1163 0.013 0.15 1.27 5.08 25 OUTLET
S1164 0.013 0.15 1.27 5.08 25 OUTLET
S1165 0.013 0.15 1.27 5.08 25 OUTLET
S1166 0.013 0.15 1.27 5.08 25 OUTLET
S1167 0.013 0.15 1.27 5.08 25 OUTLET
S1169 0.013 0.15 1.27 5.08 25 OUTLET
S1172 0.013 0.15 1.27 5.08 25 OUTLET
S1173 0.013 0.15 1.27 5.08 25 OUTLET
S1174 0.013 0.15 1.27 5.08 25 OUTLET
S1175 0.013 0.15 1.27 5.08 25 OUTLET
S1176 0.013 0.15 1.27 5.08 25 OUTLET
S1177 0.013 0.15 1.27 5.08 25 OUTLET
S1179 0.013 0.15 1.27 5.08 25 OUTLET
S1180 0.013 0.15 1.27 5.08 25 OUTLET
S1181 0.013 0.15 1.27 5.08 25 OUTLET
S1182 0.013 0.15 1.27 5.08 25 OUTLET
S1183 0.013 0.15 1.27 5.08 25 OUTLET
S1184 0.013 0.15 1.27 5.08 25 OUTLET
S1186 0.013 0.15 1.27 5.08 25 OUTLET
S1187 0.013 0.15 1.27 5.08 25 OUTLET
S1188 0.013 0.15 1.27 5.08 25 OUTLET
S1189 0.013 0.15 1.27 5.08 25 OUTLET
S1190 0.013 0.15 1.27 5.08 25 OUTLET
S1191 0.013 0.15 1.27 5.08 25 OUTLET
S1192 0.013 0.15 1.27 5.08 25 OUTLET
S1193 0.013 0.15 1.27 5.08 25 OUTLET
S1194 0.013 0.15 1.27 5.08 25 OUTLET
S1195 0.013 0.15 1.27 5.08 25 OUTLET
S1196 0.013 0.15 1.27 5.08 25 OUTLET
S1197 0.013 0.15 1.27 5.08 25 OUTLET
S1200 0.013 0.15 1.27 5.08 25 OUTLET
S1201 0.013 0.15 1.27 5.08 25 OUTLET
S1202 0.013 0.15 1.27 5.08 25 OUTLET
S1203 0.013 0.15 1.27 5.08 25 OUTLET
S1205 0.013 0.15 1.27 5.08 25 OUTLET
S1206 0.013 0.15 1.27 5.08 25 OUTLET
S1207 0.013 0.15 1.27 5.08 25 OUTLET
S1208 0.013 0.15 1.27 5.08 25 OUTLET
S1209 0.013 0.15 1.27 5.08 25 OUTLET
S1210 0.013 0.15 1.27 5.08 25 OUTLET
S1211 0.013 0.15 1.27 5.08 25 OUTLET
S1212 0.013 0.15 1.27 5.08 25 OUTLET
S1213 0.013 0.15 1.27 5.08 25 OUTLET
S1215 0.013 0.15 1.27 5.08 25 OUTLET
S1216 0.013 0.15 1.27 5.08 25 OUTLET
S1217 0.013 0.15 1.27 5.08 25 OUTLET
S1218 0.013 0.15 1.27 5.08 25 OUTLET
S1221 0.013 0.15 1.27 5.08 25 OUTLET
S1222 0.013 0.15 1.27 5.08 25 OUTLET
S1223 0.013 0.15 1.27 5.08 25 OUTLET
S1224 0.013 0.15 1.27 5.08 25 OUTLET
S1225 0.013 0.15 1.27 5.08 25 OUTLET
S1226 0.013 0.15 1.27 5.08 25 OUTLET
S1227 0.013 0.15 1.27 5.08 25 OUTLET
S1228 0.013 0.15 1.27 5.08 25 OUTLET
S1229 0.013 0.15 1.27 5.08 25 OUTLET
S1230 0.013 0.15 1.27 5.08 25 OUTLET
S1231 0.013 0.15 1.27 5.08 25 OUTLET
S1232 0.013 0.15 1.27 5.08 25 OUTLET
S1233 0.013 0.15 1.27 5.08 25 OUTLET
S1234 0.013 0.15 1.27 5.08 25 OUTLET
S1235 0.013 0.15 1.27 5.08 25 OUTLET
S1236 0.013 0.15 1.27 5.08 25 OUTLET
S1237 0.013 0.15 1.27 5.08 25 OUTLET
S1238 0.013 0.15 1.27 5.08 25 OUTLET
S1239 0.013 0.15 1.27 5.08 25 OUTLET
S1240 0.013 0.15 1.27 5.08 25 OUTLET
S1241 0.013 0.15 1.27 5.08 25 OUTLET
S1242 0.013 0.15 1.27 5.08 25 OUTLET
S1243 0.013 0.15 1.27 5.08 25 OUTLET
S1244 0.013 0.15 1.27 5.08 25 OUTLET
S1245 0.013 0.15 1.27 5.08 25 OUTLET
S1246 0.013 0.15 1.27 5.08 25 OUTLET
S1247 0.013 0.15 1.27 5.08 25 OUTLET
S1248 0.013 0.15 1.27 5.08 25 OUTLET
S1249 0.013 0.15 1.27 5.08 25 OUTLET
S1250 0.013 0.15 1.27 5.08 25 OUTLET
S1251 0.013 0.15 1.27 5.08 25 OUTLET
S1252 0.013 0.15 1.27 5.08 25 OUTLET
S1254 0.013 0.15 1.27 5.08 25 OUTLET
S1255 0.013 0.15 1.27 5.08 25 OUTLET
S1256 0.013 0.15 1.27 5.08 25 OUTLET
S1257 0.013 0.15 1.27 5.08 25 OUTLET
S1258 0.013 0.15 1.27 5.08 25 OUTLET
S1259 0.013 0.15 1.27 5.08 25 OUTLET
S1260 0.013 0.15 1.27 5.08 25 OUTLET
S1261 0.013 0.15 1.27 5.08 25 OUTLET
S1262 0.013 0.15 1.27 5.08 25 OUTLET
S1263 0.013 0.15 1.27 5.08 25 OUTLET
S1264 0.013 0.15 1.27 5.08 25 OUTLET
S1265 0.013 0.15 1.27 5.08 25 OUTLET
S1266 0.013 0.15 1.27 5.08 25 OUTLET
S1267 0.013 0.15 1.27 5.08 25 OUTLET
S1268 0.013 0.15 1.27 5.08 25 OUTLET
S1269 0.013 0.15 1.27 5.08 25 OUTLET
S1271 0.013 0.15 1.27 5.08 25 OUTLET
S1272 0.013 0.15 1.27 5.08 25 OUTLET
S1273 0.013 0.15 1.27 5.08 25 OUTLET
S1274 0.013 0.15 1.27 5.08 25 OUTLET
S1275 0.013 0.15 1.27 5.08 25 OUTLET
S1276 0.013 0.15 1.27 5.08 25 OUTLET
S1277 0.013 0.15 1.27 5.08 25 OUTLET
S1280 0.013 0.15 1.27 5.08 25 OUTLET
S1281 0.013 0.15 1.27 5.08 25 OUTLET
S1282 0.013 0.15 1.27 5.08 25 OUTLET
S1283 0.013 0.15 1.27 5.08 25 OUTLET
S1284 0.013 0.15 1.27 5.08 25 OUTLET
S1285 0.013 0.15 1.27 5.08 25 OUTLET
S1286 0.013 0.15 1.27 5.08 25 OUTLET
S1287 0.013 0.15 1.27 5.08 25 OUTLET
S1288 0.013 0.15 1.27 5.08 25 OUTLET
S1291 0.013 0.15 1.27 5.08 25 OUTLET
S1292 0.013 0.15 1.27 5.08 25 OUTLET
S1293 0.013 0.15 1.27 5.08 25 OUTLET
S1294 0.013 0.15 1.27 5.08 25 OUTLET
S1295 0.013 0.15 1.27 5.08 25 OUTLET
S1296 0.013 0.15 1.27 5.08 25 OUTLET
S1297 0.013 0.15 1.27 5.08 25 OUTLET
S1298 0.013 0.15 1.27 5.08 25 OUTLET
S1299 0.013 0.15 1.27 5.08 25 OUTLET
S1300 0.013 0.15 1.27 5.08 25 OUTLET
S1301 0.013 0.15 1.27 5.08 25 OUTLET
S1302 0.013 0.15 1.27 5.08 25 OUTLET
S1303 0.013 0.15 1.27 5.08 25 OUTLET
S1304 0.013 0.15 1.27 5.08 25 OUTLET
S1305 0.013 0.15 1.27 5.08 25 OUTLET
S1307 0.013 0.15 1.27 5.08 25 OUTLET
S1308 0.013 0.15 1.27 5.08 25 OUTLET
S1309 0.013 0.15 1.27 5.08 25 OUTLET
S1310 0.013 0.15 1.27 5.08 25 OUTLET
S1313 0.013 0.15 1.27 5.08 25 OUTLET
S1314 0.013 0.15 1.27 5.08 25 OUTLET
S1316 0.013 0.15 1.27 5.08 25 OUTLET
S1318 0.013 0.15 1.27 5.08 25 OUTLET
S1319 0.013 0.15 1.27 5.08 25 OUTLET
S1320 0.013 0.15 1.27 5.08 25 OUTLET
S1321 0.013 0.15 1.27 5.08 25 OUTLET
S1322 0.013 0.15 1.27 5.08 25 OUTLET
S1323 0.013 0.15 1.27 5.08 25 OUTLET
S1324 0.013 0.15 1.27 5.08 25 OUTLET
S1325 0.013 0.15 1.27 5.08 25 OUTLET
S1326 0.013 0.15 1.27 5.08 25 OUTLET
S1327 0.013 0.15 1.27 5.08 25 OUTLET
S1328 0.013 0.15 1.27 5.08 25 OUTLET
S1329 0.013 0.15 1.27 5.08 25 OUTLET
S1331 0.013 0.15 1.27 5.08 25 OUTLET
S1332 0.013 0.15 1.27 5.08 25 OUTLET
S1333 0.013 0.15 1.27 5.08 25 OUTLET
S1334 0.013 0.15 1.27 5.08 25 OUTLET
S1339 0.013 0.15 1.27 5.08 25 OUTLET
S1340 0.013 0.15 1.27 5.08 25 OUTLET
S1341 0.013 0.15 1.27 5.08 25 OUTLET
S1342 0.013 0.15 1.27 5.08 25 OUTLET
S1343 0.013 0.15 1.27 5.08 25 OUTLET
S1344 0.013 0.15 1.27 5.08 25 OUTLET
S1346 0.013 0.15 1.27 5.08 25 OUTLET
S1347 0.013 0.15 1.27 5.08 25 OUTLET
S1348 0.013 0.15 1.27 5.08 25 OUTLET
S1349 0.013 0.15 1.27 5.08 25 OUTLET
S1350 0.013 0.15 1.27 5.08 25 OUTLET
S1351 0.013 0.15 1.27 5.08 25 OUTLET
S1352 0.013 0.15 1.27 5.08 25 OUTLET
S1353 0.013 0.15 1.27 5.08 25 OUTLET
S1354 0.013 0.15 1.27 5.08 25 OUTLET
S1355 0.013 0.15 1.27 5.08 25 OUTLET
S1356 0.013 0.15 1.27 5.08 25 OUTLET
S1357 0.013 0.15 1.27 5.08 25 OUTLET
S1358 0.013 0.15 1.27 5.08 25 OUTLET
S1359 0.013 0.15 1.27 5.08 25 OUTLET
S1360 0.013 0.15 1.27 5.08 25 OUTLET
S1361 0.013 0.15 1.27 5.08 25 OUTLET
S1362 0.013 0.15 1.27 5.08 25 OUTLET
S1363 0.013 0.15 1.27 5.08 25 OUTLET
S1364 0.013 0.15 1.27 5.08 25 OUTLET
S1365 0.013 0.15 1.27 5.08 25 OUTLET
S1366 0.013 0.15 1.27 5.08 25 OUTLET
S1367 0.013 0.15 1.27 5.08 25 OUTLET
S1368 0.013 0.15 1.27 5.08 25 OUTLET
S1369 0.013 0.15 1.27 5.08 25 OUTLET
S1370 0.013 0.15 1.27 5.08 25 OUTLET
S1371 0.013 0.15 1.27 5.08 25 OUTLET
S1372 0.013 0.15 1.27 5.08 25 OUTLET
S1374 0.013 0.15 1.27 5.08 25 OUTLET
S1375 0.013 0.15 1.27 5.08 25 OUTLET
S1377 0.013 0.15 1.27 5.08 25 OUTLET
S1378 0.013 0.15 1.27 5.08 25 OUTLET
S1380 0.013 0.15 1.27 5.08 25 OUTLET
S1382 0.013 0.15 1.27 5.08 25 OUTLET
S1383 0.013 0.15 1.27 5.08 25 OUTLET
S1384 0.013 0.15 1.27 5.08 25 OUTLET
S1385 0.013 0.15 1.27 5.08 25 OUTLET
S1386 0.013 0.15 1.27 5.08 25 OUTLET
S1387 0.013 0.15 1.27 5.08 25 OUTLET
S1389 0.013 0.15 1.27 5.08 25 OUTLET
S1391 0.013 0.15 1.27 5.08 25 OUTLET
S1392 0.013 0.15 1.27 5.08 25 OUTLET
S1394 0.013 0.15 1.27 5.08 25 OUTLET
S1395 0.013 0.15 1.27 5.08 25 OUTLET
S1396 0.013 0.15 1.27 5.08 25 OUTLET
S1397 0.013 0.15 1.27 5.08 25 OUTLET
S1398 0.013 0.15 1.27 5.08 25 OUTLET
S1399 0.013 0.15 1.27 5.08 25 OUTLET
S1400 0.013 0.15 1.27 5.08 25 OUTLET
S1401 0.013 0.15 1.27 5.08 25 OUTLET
S1404 0.013 0.15 1.27 5.08 25 OUTLET
S1405 0.013 0.15 1.27 5.08 25 OUTLET
S1406 0.013 0.15 1.27 5.08 25 OUTLET
S1407 0.013 0.15 1.27 5.08 25 OUTLET
S1408 0.013 0.15 1.27 5.08 25 OUTLET
S1409 0.013 0.15 1.27 5.08 25 OUTLET
S1410 0.013 0.15 1.27 5.08 25 OUTLET
S1411 0.013 0.15 1.27 5.08 25 OUTLET
S1412 0.013 0.15 1.27 5.08 25 OUTLET
S1413 0.013 0.15 1.27 5.08 25 OUTLET
S1414 0.013 0.15 1.27 5.08 25 OUTLET
S1415 0.013 0.15 1.27 5.08 25 OUTLET
S1416 0.013 0.15 1.27 5.08 25 OUTLET
S1417 0.013 0.15 1.27 5.08 25 OUTLET
S1418 0.013 0.15 1.27 5.08 25 OUTLET
S1419 0.013 0.15 1.27 5.08 25 OUTLET
S1420 0.013 0.15 1.27 5.08 25 OUTLET
S1421 0.013 0.15 1.27 5.08 25 OUTLET
S1422 0.013 0.15 1.27 5.08 25 OUTLET
S1423 0.013 0.15 1.27 5.08 25 OUTLET
S1424 0.013 0.15 1.27 5.08 25 OUTLET
S1425 0.013 0.15 1.27 5.08 25 OUTLET
S1426 0.013 0.15 1.27 5.08 25 OUTLET
S1427 0.013 0.15 1.27 5.08 25 OUTLET
S1428 0.013 0.15 1.27 5.08 25 OUTLET
S1430 0.013 0.15 1.27 5.08 25 OUTLET
S1431 0.013 0.15 1.27 5.08 25 OUTLET
S1432 0.013 0.15 1.27 5.08 25 OUTLET
S1433 0.013 0.15 1.27 5.08 25 OUTLET
S1435 0.013 0.15 1.27 5.08 25 OUTLET
S1436 0.013 0.15 1.27 5.08 25 OUTLET
S1438 0.013 0.15 1.27 5.08 25 OUTLET
S1440 0.013 0.15 1.27 5.08 25 OUTLET
S1445 0.013 0.15 1.27 5.08 25 OUTLET
S1446 0.013 0.15 1.27 5.08 25 OUTLET
S1447 0.013 0.15 1.27 5.08 25 OUTLET
S1449 0.013 0.15 1.27 5.08 25 OUTLET
S1450 0.013 0.15 1.27 5.08 25 OUTLET
S1452 0.013 0.15 1.27 5.08 25 OUTLET
S1453 0.013 0.15 1.27 5.08 25 OUTLET
S1454 0.013 0.15 1.27 5.08 25 OUTLET
S1455 0.013 0.15 1.27 5.08 25 OUTLET
S1457 0.013 0.15 1.27 5.08 25 OUTLET
S1458 0.013 0.15 1.27 5.08 25 OUTLET
S1459 0.013 0.15 1.27 5.08 25 OUTLET
S1460 0.013 0.15 1.27 5.08 25 OUTLET
S1461 0.013 0.15 1.27 5.08 25 OUTLET
S1463 0.013 0.15 1.27 5.08 25 OUTLET
S1464 0.013 0.15 1.27 5.08 25 OUTLET
S1465 0.013 0.15 1.27 5.08 25 OUTLET
S1466 0.013 0.15 1.27 5.08 25 OUTLET
S1467 0.013 0.15 1.27 5.08 25 OUTLET
S1468 0.013 0.15 1.27 5.08 25 OUTLET
S1469 0.013 0.15 1.27 5.08 25 OUTLET
S1470 0.013 0.15 1.27 5.08 25 OUTLET
S1471 0.013 0.15 1.27 5.08 25 OUTLET
S1472 0.013 0.15 1.27 5.08 25 OUTLET
S1475 0.013 0.15 1.27 5.08 25 OUTLET
S1476 0.013 0.15 1.27 5.08 25 OUTLET
S1477 0.013 0.15 1.27 5.08 25 OUTLET
S1485 0.013 0.15 1.27 5.08 25 OUTLET
S1486 0.013 0.15 1.27 5.08 25 OUTLET
S1491 0.013 0.15 1.27 5.08 25 OUTLET
S1493 0.013 0.15 1.27 5.08 25 OUTLET
S1494 0.013 0.15 1.27 5.08 25 OUTLET
S1497 0.013 0.15 1.27 5.08 25 OUTLET
S1500 0.013 0.15 1.27 5.08 25 OUTLET
S1501 0.013 0.15 1.27 5.08 25 OUTLET
S1502 0.013 0.15 1.27 5.08 25 OUTLET
S1503 0.013 0.15 1.27 5.08 25 OUTLET
S1504 0.013 0.15 1.27 5.08 25 OUTLET
S1505 0.013 0.15 1.27 5.08 25 OUTLET
S1508 0.013 0.15 1.27 5.08 25 OUTLET
S1509 0.013 0.15 1.27 5.08 25 OUTLET
S1512 0.013 0.15 1.27 5.08 25 OUTLET
S1515 0.013 0.15 1.27 5.08 25 OUTLET
S1516 0.013 0.15 1.27 5.08 25 OUTLET
S1517 0.013 0.15 1.27 5.08 25 OUTLET
S1520 0.013 0.15 1.27 5.08 25 OUTLET
S1521 0.013 0.15 1.27 5.08 25 OUTLET
S1523 0.013 0.15 1.27 5.08 25 OUTLET
S1524 0.013 0.15 1.27 5.08 25 OUTLET
S1525 0.013 0.15 1.27 5.08 25 OUTLET
S1526 0.013 0.15 1.27 5.08 25 OUTLET
S1528 0.013 0.15 1.27 5.08 25 OUTLET
S1529 0.013 0.15 1.27 5.08 25 OUTLET
S1530 0.013 0.15 1.27 5.08 25 OUTLET
S1531 0.013 0.15 1.27 5.08 25 OUTLET
S1532 0.013 0.15 1.27 5.08 25 OUTLET
S1533 0.013 0.15 1.27 5.08 25 OUTLET
S1534 0.013 0.15 1.27 5.08 25 OUTLET
S1535 0.013 0.15 1.27 5.08 25 OUTLET
S1536 0.013 0.15 1.27 5.08 25 OUTLET
S1537 0.013 0.15 1.27 5.08 25 OUTLET
S1538 0.013 0.15 1.27 5.08 25 OUTLET
S1539 0.013 0.15 1.27 5.08 25 OUTLET
S1540 0.013 0.15 1.27 5.08 25 OUTLET
S1541 0.013 0.15 1.27 5.08 25 OUTLET
S1542 0.013 0.15 1.27 5.08 25 OUTLET
S1543 0.013 0.15 1.27 5.08 25 OUTLET
S1544 0.013 0.15 1.27 5.08 25 OUTLET
S1545 0.013 0.15 1.27 5.08 25 OUTLET
S1546 0.013 0.15 1.27 5.08 25 OUTLET
S1547 0.013 0.15 1.27 5.08 25 OUTLET
S1548 0.013 0.15 1.27 5.08 25 OUTLET
S1549 0.013 0.15 1.27 5.08 25 OUTLET
S1550 0.013 0.15 1.27 5.08 25 OUTLET
S1552 0.013 0.15 1.27 5.08 25 OUTLET
S1561 0.013 0.15 1.27 5.08 25 OUTLET
S1562 0.013 0.15 1.27 5.08 25 OUTLET
S1563 0.013 0.15 1.27 5.08 25 OUTLET
S1564 0.013 0.15 1.27 5.08 25 OUTLET
S1565 0.013 0.15 1.27 5.08 25 OUTLET
S1566 0.013 0.15 1.27 5.08 25 OUTLET
S1567 0.013 0.15 1.27 5.08 25 OUTLET
S1568 0.013 0.15 1.27 5.08 25 OUTLET
S1569 0.013 0.15 1.27 5.08 25 OUTLET
S1570 0.013 0.15 1.27 5.08 25 OUTLET
S1573 0.013 0.15 1.27 5.08 25 OUTLET
S1574 0.013 0.15 1.27 5.08 25 OUTLET
S1575 0.013 0.15 1.27 5.08 25 OUTLET
S1576 0.013 0.15 1.27 5.08 25 OUTLET
S1577 0.013 0.15 1.27 5.08 25 OUTLET
S1578 0.013 0.15 1.27 5.08 25 OUTLET
S1584 0.013 0.15 1.27 5.08 25 OUTLET
S1585 0.013 0.15 1.27 5.08 25 OUTLET
S1588 0.013 0.15 1.27 5.08 25 OUTLET
S1589 0.013 0.15 1.27 5.08 25 OUTLET
S1591 0.013 0.15 1.27 5.08 25 OUTLET
S1592 0.013 0.15 1.27 5.08 25 OUTLET
S1597 0.013 0.15 1.27 5.08 25 OUTLET
S1598 0.013 0.15 1.27 5.08 25 OUTLET
S1599 0.013 0.15 1.27 5.08 25 OUTLET
S1602 0.013 0.15 1.27 5.08 25 OUTLET
S1603 0.013 0.15 1.27 5.08 25 OUTLET
S1604 0.013 0.15 1.27 5.08 25 OUTLET
S1606 0.013 0.15 1.27 5.08 25 OUTLET
S1609 0.013 0.15 1.27 5.08 25 OUTLET
S1610 0.013 0.15 1.27 5.08 25 OUTLET
S1613 0.013 0.15 1.27 5.08 25 OUTLET
S1614 0.013 0.15 1.27 5.08 25 OUTLET
S1615 0.013 0.15 1.27 5.08 25 OUTLET
S1616 0.013 0.15 1.27 5.08 25 OUTLET
S1621 0.013 0.15 1.27 5.08 25 OUTLET
S1622 0.013 0.15 1.27 5.08 25 OUTLET
S1623 0.013 0.15 1.27 5.08 25 OUTLET
S1628 0.013 0.15 1.27 5.08 25 OUTLET
S1629 0.013 0.15 1.27 5.08 25 OUTLET
S1631 0.013 0.15 1.27 5.08 25 OUTLET
S1633 0.013 0.15 1.27 5.08 25 OUTLET
S1634 0.013 0.15 1.27 5.08 25 OUTLET
S1635 0.013 0.15 1.27 5.08 25 OUTLET
S1636 0.013 0.15 1.27 5.08 25 OUTLET
S1637 0.013 0.15 1.27 5.08 25 OUTLET
S1638 0.013 0.15 1.27 5.08 25 OUTLET
S1639 0.013 0.15 1.27 5.08 25 OUTLET
S1641 0.013 0.15 1.27 5.08 25 OUTLET
S1642 0.013 0.15 1.27 5.08 25 OUTLET
S1643 0.013 0.15 1.27 5.08 25 OUTLET
S1645 0.013 0.15 1.27 5.08 25 OUTLET
S1646 0.013 0.15 1.27 5.08 25 OUTLET
S1649 0.013 0.15 1.27 5.08 25 OUTLET
S1650 0.013 0.15 1.27 5.08 25 OUTLET
S1651 0.013 0.15 1.27 5.08 25 OUTLET
S1652 0.013 0.15 1.27 5.08 25 OUTLET
S1655 0.013 0.15 1.27 5.08 25 OUTLET
S1656 0.013 0.15 1.27 5.08 25 OUTLET
S1657 0.013 0.15 1.27 5.08 25 OUTLET
S1664 0.013 0.15 1.27 5.08 25 OUTLET
S1665 0.013 0.15 1.27 5.08 25 OUTLET
S1670 0.013 0.15 1.27 5.08 25 OUTLET
S1674 0.013 0.15 1.27 5.08 25 OUTLET
S1680 0.013 0.15 1.27 5.08 25 OUTLET
S1690 0.013 0.15 1.27 5.08 25 OUTLET
S1691 0.013 0.15 1.27 5.08 25 OUTLET
S1696 0.013 0.15 1.27 5.08 25 OUTLET
S1697 0.013 0.15 1.27 5.08 25 OUTLET
S1703 0.013 0.15 1.27 5.08 25 OUTLET
S1707 0.013 0.15 1.27 5.08 25 OUTLET
S1710 0.013 0.15 1.27 5.08 25 OUTLET
S1711 0.013 0.15 1.27 5.08 25 OUTLET
S1712 0.013 0.15 1.27 5.08 25 OUTLET
S1713 0.013 0.15 1.27 5.08 25 OUTLET
S1716 0.013 0.15 1.27 5.08 25 OUTLET
S1717 0.013 0.15 1.27 5.08 25 OUTLET
S1719 0.013 0.15 1.27 5.08 25 OUTLET
S1720 0.013 0.15 1.27 5.08 25 OUTLET
S1723 0.013 0.15 1.27 5.08 25 OUTLET
S1726 0.013 0.15 1.27 5.08 25 OUTLET
S1727 0.013 0.15 1.27 5.08 25 OUTLET
S1728 0.013 0.15 1.27 5.08 25 OUTLET
S1729 0.013 0.15 1.27 5.08 25 OUTLET
S1730 0.013 0.15 1.27 5.08 25 OUTLET
S1731 0.013 0.15 1.27 5.08 25 OUTLET
S1732 0.013 0.15 1.27 5.08 25 OUTLET
S1734 0.013 0.15 1.27 5.08 25 OUTLET
S1750 0.013 0.15 1.27 5.08 25 OUTLET
S1753 0.013 0.15 1.27 5.08 25 OUTLET
S1754 0.013 0.15 1.27 5.08 25 OUTLET
S1757 0.013 0.15 1.27 5.08 25 OUTLET
S1759 0.013 0.15 1.27 5.08 25 OUTLET
S1760 0.013 0.15 1.27 5.08 25 OUTLET
S1764 0.013 0.15 1.27 5.08 25 OUTLET
S1765 0.013 0.15 1.27 5.08 25 OUTLET
S1769 0.013 0.15 1.27 5.08 25 OUTLET
S1776 0.013 0.15 1.27 5.08 25 OUTLET
S1777 0.013 0.15 1.27 5.08 25 OUTLET
S1782 0.013 0.15 1.27 5.08 25 OUTLET
S1784 0.013 0.15 1.27 5.08 25 OUTLET
S1788 0.013 0.15 1.27 5.08 25 OUTLET
S1790 0.013 0.15 1.27 5.08 25 OUTLET
S1798 0.013 0.15 1.27 5.08 25 OUTLET
S1799 0.013 0.15 1.27 5.08 25 OUTLET
S1802 0.013 0.15 1.27 5.08 25 OUTLET
S1808 0.013 0.15 1.27 5.08 25 OUTLET
S1813 0.013 0.15 1.27 5.08 25 OUTLET
S1814 0.013 0.15 1.27 5.08 25 OUTLET
S1815 0.013 0.15 1.27 5.08 25 OUTLET
S1816 0.013 0.15 1.27 5.08 25 OUTLET
S1817 0.013 0.15 1.27 5.08 25 OUTLET
S1819 0.013 0.15 1.27 5.08 25 OUTLET
S1820 0.013 0.15 1.27 5.08 25 OUTLET
S1824 0.013 0.15 1.27 5.08 25 OUTLET
S1827 0.013 0.15 1.27 5.08 25 OUTLET
S1828 0.013 0.15 1.27 5.08 25 OUTLET
S1829 0.013 0.15 1.27 5.08 25 OUTLET
S1830 0.013 0.15 1.27 5.08 25 OUTLET
S1831 0.013 0.15 1.27 5.08 25 OUTLET
S1832 0.013 0.15 1.27 5.08 25 OUTLET
S1833 0.013 0.15 1.27 5.08 25 OUTLET
S1835 0.013 0.15 1.27 5.08 25 OUTLET
S1836 0.013 0.15 1.27 5.08 25 OUTLET
S1840 0.013 0.15 1.27 5.08 25 OUTLET
S1844 0.013 0.15 1.27 5.08 25 OUTLET
S1846 0.013 0.15 1.27 5.08 25 OUTLET
S1847 0.013 0.15 1.27 5.08 25 OUTLET
S1848 0.013 0.15 1.27 5.08 25 OUTLET
S1851 0.013 0.15 1.27 5.08 25 OUTLET
S1852 0.013 0.15 1.27 5.08 25 OUTLET
S1853 0.013 0.15 1.27 5.08 25 OUTLET
S1854 0.013 0.15 1.27 5.08 25 OUTLET
S1856 0.013 0.15 1.27 5.08 25 OUTLET
S1857 0.013 0.15 1.27 5.08 25 OUTLET
S1859 0.013 0.15 1.27 5.08 25 OUTLET
S1860 0.013 0.15 1.27 5.08 25 OUTLET
S1861 0.013 0.15 1.27 5.08 25 OUTLET
S1862 0.013 0.15 1.27 5.08 25 OUTLET
S1863 0.013 0.15 1.27 5.08 25 OUTLET
S1864 0.013 0.15 1.27 5.08 25 OUTLET
S1865 0.013 0.15 1.27 5.08 25 OUTLET
S1866 0.013 0.15 1.27 5.08 25 OUTLET
S1870 0.013 0.15 1.27 5.08 25 OUTLET
S1871 0.013 0.15 1.27 5.08 25 OUTLET
S1874 0.013 0.15 1.27 5.08 25 OUTLET
S1875 0.013 0.15 1.27 5.08 25 OUTLET
S1876 0.013 0.15 1.27 5.08 25 OUTLET
S1888 0.013 0.15 1.27 5.08 25 OUTLET
S1891 0.013 0.15 1.27 5.08 25 OUTLET
S1892 0.013 0.15 1.27 5.08 25 OUTLET
S1896 0.013 0.15 1.27 5.08 25 OUTLET
S1897 0.013 0.15 1.27 5.08 25 OUTLET
S1898 0.013 0.15 1.27 5.08 25 OUTLET
S1901 0.013 0.15 1.27 5.08 25 OUTLET
S1902 0.013 0.15 1.27 5.08 25 OUTLET
S1903 0.013 0.15 1.27 5.08 25 OUTLET
S1904 0.013 0.15 1.27 5.08 25 OUTLET
S1906 0.013 0.15 1.27 5.08 25 OUTLET
S1908 0.013 0.15 1.27 5.08 25 OUTLET
S1909 0.013 0.15 1.27 5.08 25 OUTLET
S1926 0.013 0.15 1.27 5.08 25 OUTLET
S1929 0.013 0.15 1.27 5.08 25 OUTLET
S1934 0.013 0.15 1.27 5.08 25 OUTLET
S1937 0.013 0.15 1.27 5.08 25 OUTLET
S1938 0.013 0.15 1.27 5.08 25 OUTLET
S1940 0.013 0.15 1.27 5.08 25 OUTLET
S1941 0.013 0.15 1.27 5.08 25 OUTLET
S1944 0.013 0.15 1.27 5.08 25 OUTLET
S1945 0.013 0.15 1.27 5.08 25 OUTLET
S1948 0.013 0.15 1.27 5.08 25 OUTLET
S1949 0.013 0.15 1.27 5.08 25 OUTLET
S1956 0.013 0.15 1.27 5.08 25 OUTLET
S1957 0.013 0.15 1.27 5.08 25 OUTLET
S1960 0.013 0.15 1.27 5.08 25 OUTLET
S1961 0.013 0.15 1.27 5.08 25 OUTLET
S1980 0.013 0.15 1.27 5.08 25 OUTLET
S1981 0.013 0.15 1.27 5.08 25 OUTLET
S1987 0.013 0.15 1.27 5.08 25 OUTLET
S1988 0.013 0.15 1.27 5.08 25 OUTLET

[INFILTRATION]
S0 76.1 0.5 7
S1 75.4 0.5 7
S2 78.6 0.5 7
S3 77.8 0.5 7
S4 78.5 0.5 7
S5 78.5 0.5 7
S6 78.7 0.5 7
S7 77.9 0.5 7
S8 78.1 0.5 7
S9 79.0 0.5 7
S11 78.8 0.5 7
S12 78.3 0.5 7
S13 78.8 0.5 7
S14 77.5 0.5 7
S15 76.1 0.5 7
S16 78.0 0.5 7
S17 76.1 0.5 7
S18 78.7 0.5 7
S19 78.5 0.5 7
S20 77.6 0.5 7
S21 77.4 0.5 7
S23 78.9 0.5 7
S24 78.5 0.5 7
S25 77.8 0.5 7
S26 78.1 0.5 7
S27 76.8 0.5 7
S28 78.0 0.5 7
S29 78.2 0.5 7
S30 76.5 0.5 7
S32 76.5 0.5 7
S33 76.9 0.5 7
S34 77.3 0.5 7
S35 76.3 0.5 7
S36 73.0 0.5 7
S37 78.2 0.5 7
S38 78.4 0.5 7
S39 77.6 0.5 7
S40 78.7 0.5 7
S41 77.5 0.5 7
S42 77.3 0.5 7
S43 77.7 0.5 7
S44 78.8 0.5 7
S45 78.7 0.5 7
S46 78.7 0.5 7
S49 78.7 0.5 7
S50 78.8 0.5 7
S51 78.3 0.5 7
S52 78.4 0.5 7
S53 76.2 0.5 7
S54 78.5 0.5 7
S55 77.6 0.5 7
S56 77.4 0.5 7
S57 84.9 0.5 7
S58 81.1 0.5 7
S59 78.8 0.5 7
S60 78.6 0.5 7
S61 77.5 0.5 7
S62 77.7 0.5 7
S63 79.1 0.5 7
S64 78.9 0.5 7
S65 78.5 0.5 7
S66 78.1 0.5 7
S67 78.2 0.5 7
S68 78.3 0.5 7
S69 78.3 0.5 7
S70 76.8 0.5 7
S71 76.8 0.5 7
S72 73.6 0.5 7
S73 78.8 0.5 7
S74 77.4 0.5 7
S75 77.7 0.5 7
S76 78.4 0.5 7
S77 77.0 0.5 7
S78 77.4 0.5 7
S80 77.8 0.5 7
S81 77.5 0.5 7
S82 78.3 0.5 7
S83 80.0 0.5 7
S84 78.5 0.5 7
S85 78.3 0.5 7
S86 77.6 0.5 7
S87 76.2 0.5 7
S88 78.7 0.5 7
S89 91.0 0.5 7
S90 77.5 0.5 7
S91 83.0 0.5 7
S92 77.6 0.5 7
S93 76.7 0.5 7
S94 76.9 0.5 7
S95 78.9 0.5 7
S96 77.2 0.5 7
S97 76.9 0.5 7
S98 77.3 0.5 7
S99 78.9 0.5 7
S100 79.0 0.5 7
S101 76.4 0.5 7
S102 78.2 0.5 7
S103 78.3 0.5 7
S104 77.3 0.5 7
S105 78.1 0.5 7
S107 78.6 0.5 7
S108 77.9 0.5 7
S109 78.3 0.5 7
S110 77.9 0.5 7
S111 77.1 0.5 7
S112 76.8 0.5 7
S113 78.0 0.5 7
S114 77.3 0.5 7
S115 78.5 0.5 7
S116 78.5 0.5 7
S117 78.2 0.5 7
S118 74.4 0.5 7
S119 78.9 0.5 7
S120 78.6 0.5 7
S121 78.8 0.5 7
S122 77.5 0.5 7
S123 76.7 0.5 7
S124 77.7 0.5 7
S125 78.3 0.5 7
S126 78.3 0.5 7
S127 75.7 0.5 7
S128 77.8 0.5 7
S129 78.2 0.5 7
S130 78.6 0.5 7
S131 77.8 0.5 7
S132 77.1 0.5 7
S133 78.9 0.5 7
S134 76.6 0.5 7
S136 77.7 0.5 7
S137 79.0 0.5 7
S138 75.1 0.5 7
S139 77.2 0.5 7
S140 77.7 0.5 7
S141 78.3 0.5 7
S142 79.0 0.5 7
S143 78.9 0.5 7
S144 78.5 0.5 7
S145 78.7 0.5 7
S146 77.9 0.5 7
S147 76.5 0.5 7
S148 77.8 0.5 7
S149 77.8 0.5 7
S150 76.5 0.5 7
S151 78.4 0.5 7
S152 76.9 0.5 7
S153 78.7 0.5 7
S154 78.6 0.5 7
S155 75.9 0.5 7
S156 76.9 0.5 7
S157 77.6 0.5 7
S158 79.0 0.5 7
S159 77.8 0.5 7
S160 78.1 0.5 7
S161 79.0 0.5 7
S162 77.1 0.5 7
S163 78.4 0.5 7
S164 76.0 0.5 7
S165 78.7 0.5 7
S166 79.0 0.5 7
S167 77.7 0.5 7
S168 72.8 0.5 7
S169 75.9 0.5 7
S170 77.2 0.5 7
S171 76.8 0.5 7
S172 78.2 0.5 7
S173 78.1 0.5 7
S174 78.5 0.5 7
S175 78.0 0.5 7
S176 76.3 0.5 7
S177 76.3 0.5 7
S178 78.8 0.5 7
S179 77.1 0.5 7
S180 77.0 0.5 7
S181 78.7 0.5 7
S182 78.8 0.5 7
S183 79.3 0.5 7
S184 79.0 0.5 7
S185 77.1 0.5 7
S186 77.0 0.5 7
S187 78.6 0.5 7
S188 78.5 0.5 7
S189 77.2 0.5 7
S190 77.4 0.5 7
S191 79.0 0.5 7
S192 83.3 0.5 7
S193 77.2 0.5 7
S194 79.1 0.5 7
S195 78.8 0.5 7
S196 78.5 0.5 7
S197 79.0 0.5 7
S198 78.7 0.5 7
S199 77.9 0.5 7
S200 78.7 0.5 7
S201 78.4 0.5 7
S202 78.5 0.5 7
S203 79.0 0.5 7
S204 77.8 0.5 7
S205 78.2 0.5 7
S206 78.4 0.5 7
S207 77.5 0.5 7
S208 76.5 0.5 7
S209 79.0 0.5 7
S211 74.1 0.5 7
S212 76.4 0.5 7
S213 78.5 0.5 7
S214 77.9 0.5 7
S215 78.1 0.5 7
S216 75.1 0.5 7
S217 78.5 0.5 7
S218 77.4 0.5 7
S220 79.1 0.5 7
S221 78.0 0.5 7
S223 78.6 0.5 7
S224 78.5 0.5 7
S225 77.3 0.5 7
S226 77.5 0.5 7
S227 77.5 0.5 7
S228 78.6 0.5 7
S229 77.0 0.5 7
S230 76.6 0.5 7
S231 79.0 0.5 7
S232 76.5 0.5 7
S233 78.8 0.5 7
S234 78.1 0.5 7
S235 78.6 0.5 7
S236 77.7 0.5 7
S237 77.7 0.5 7
S238 77.7 0.5 7
S239 76.1 0.5 7
S240 78.6 0.5 7
S241 77.9 0.5 7
S242 78.6 0.5 7
S243 76.4 0.5 7
S244 77.5 0.5 7
S245 78.6 0.5 7
S246 78.7 0.5 7
S247 76.0 0.5 7
S248 77.5 0.5 7
S249 78.4 0.5 7
S250 75.6 0.5 7
S251 75.1 0.5 7
S252 78.2 0.5 7
S253 74.8 0.5 7
S254 72.3 0.5 7
S255 78.6 0.5 7
S256 77.2 0.5 7
S257 76.8 0.5 7
S258 77.7 0.5 7
S259 78.4 0.5 7
S260 76.7 0.5 7
S261 78.8 0.5 7
S262 79.0 0.5 7
S263 78.4 0.5 7
S264 78.7 0.5 7
S265 76.9 0.5 7
S266 78.2 0.5 7
S268 78.7 0.5 7
S269 72.7 0.5 7
S270 78.5 0.5 7
S272 78.4 0.5 7
S273 78.0 0.5 7
S274 78.4 0.5 7
S275 78.2 0.5 7
S276 77.8 0.5 7
S277 79.6 0.5 7
S278 76.8 0.5 7
S279 77.0 0.5 7
S280 75.2 0.5 7
S281 76.9 0.5 7
S282 78.3 0.5 7
S283 78.9 0.5 7
S284 77.8 0.5 7
S285 78.5 0.5 7
S286 78.1 0.5 7
S287 78.8 0.5 7
S288 77.4 0.5 7
S289 75.9 0.5 7
S290 76.6 0.5 7
S291 76.7 0.5 7
S292 77.9 0.5 7
S293 76.9 0.5 7
S294 76.8 0.5 7
S295 79.0 0.5 7
S296 78.1 0.5 7
S297 78.5 0.5 7
S298 78.0 0.5 7
S299 77.3 0.5 7
S300 77.6 0.5 7
S301 78.5 0.5 7
S302 77.5 0.5 7
S303 78.4 0.5 7
S304 77.6 0.5 7
S305 78.4 0.5 7
S306 78.6 0.5 7
S307 77.5 0.5 7
S308 70.1 0.5 7
S309 78.9 0.5 7
S310 78.3 0.5 7
S311 77.1 0.5 7
S312 78.4 0.5 7
S313 79.0 0.5 7
S314 76.8 0.5 7
S315 76.0 0.5 7
S316 77.4 0.5 7
S317 75.9 0.5 7
S318 78.5 0.5 7
S319 79.0 0.5 7
S320 74.6 0.5 7
S321 75.9 0.5 7
S322 75.4 0.5 7
S323 79.0 0.5 7
S324 75.0 0.5 7
S325 77.6 0.5 7
S326 77.5 0.5 7
S327 78.9 0.5 7
S328 77.8 0.5 7
S329 76.4 0.5 7
S330 77.2 0.5 7
S332 77.1 0.5 7
S334 78.7 0.5 7
S335 79.0 0.5 7
S336 78.6 0.5 7
S337 74.3 0.5 7
S338 75.7 0.5 7
S339 78.5 0.5 7
S340 78.0 0.5 7
S341 78.9 0.5 7
S342 78.7 0.5 7
S343 79.0 0.5 7
S344 76.9 0.5 7
S345 78.0 0.5 7
S346 78.8 0.5 7
S347 77.3 0.5 7
S348 77.3 0.5 7
S349 78.0 0.5 7
S350 78.4 0.5 7
S351 78.9 0.5 7
S352 77.9 0.5 7
S353 77.5 0.5 7
S354 78.4 0.5 7
S355 79.0 0.5 7
S356 79.0 0.5 7
S357 78.9 0.5 7
S358 78.8 0.5 7
S359 78.8 0.5 7
S360 78.4 0.5 7
S361 79.1 0.5 7
S363 81.5 0.5 7
S364 81.3 0.5 7
S365 78.8 0.5 7
S366 78.9 0.5 7
S367 79.1 0.5 7
S368 80.5 0.5 7
S369 76.9 0.5 7
S371 78.6 0.5 7
S372 78.6 0.5 7
S373 78.1 0.5 7
S375 78.5 0.5 7
S376 76.9 0.5 7
S377 77.2 0.5 7
S378 78.9 0.5 7
S379 76.9 0.5 7
S380 77.5 0.5 7
S381 78.6 0.5 7
S386 78.9 0.5 7
S388 76.0 0.5 7
S390 78.0 0.5 7
S391 79.0 0.5 7
S392 78.5 0.5 7
S394 78.9 0.5 7
S395 78.0 0.5 7
S396 81.5 0.5 7
S397 79.0 0.5 7
S398 70.8 0.5 7
S399 74.4 0.5 7
S400 78.7 0.5 7
S401 75.7 0.5 7
S402 78.4 0.5 7
S403 72.4 0.5 7
S404 77.5 0.5 7
S405 78.7 0.5 7
S406 78.5 0.5 7
S407 78.6 0.5 7
S408 73.7 0.5 7
S409 78.7 0.5 7
S410 78.3 0.5 7
S411 78.2 0.5 7
S412 78.4 0.5 7
S413 75.1 0.5 7
S414 78.8 0.5 7
S415 73.4 0.5 7
S418 84.3 0.5 7
S419 78.2 0.5 7
S420 78.9 0.5 7
S421 77.2 0.5 7
S422 78.8 0.5 7
S423 75.2 0.5 7
S424 78.0 0.5 7
S425 78.0 0.5 7
S426 81.1 0.5 7
S427 78.3 0.5 7
S428 79.0 0.5 7
S429 78.5 0.5 7
S430 77.0 0.5 7
S431 74.9 0.5 7
S432 72.2 0.5 7
S436 79.0 0.5 7
S437 79.9 0.5 7
S438 76.7 0.5 7
S439 77.1 0.5 7
S440 78.2 0.5 7
S441 76.7 0.5 7
S442 80.4 0.5 7
S443 75.0 0.5 7
S444 77.2 0.5 7
S445 78.0 0.5 7
S446 79.1 0.5 7
S447 80.6 0.5 7
S448 79.0 0.5 7
S449 78.8 0.5 7
S450 78.6 0.5 7
S451 78.3 0.5 7
S452 78.1 0.5 7
S453 78.9 0.5 7
S454 79.0 0.5 7
S455 78.1 0.5 7
S456 81.5 0.5 7
S457 77.9 0.5 7
S458 76.1 0.5 7
S459 77.3 0.5 7
S460 86.2 0.5 7
S461 90.3 0.5 7
S462 81.4 0.5 7
S464 77.7 0.5 7
S465 77.2 0.5 7
S466 78.2 0.5 7
S467 77.3 0.5 7
S468 72.6 0.5 7
S469 84.5 0.5 7
S470 80.0 0.5 7
S471 77.6 0.5 7
S472 76.4 0.5 7
S473 72.5 0.5 7
S474 75.1 0.5 7
S475 78.6 0.5 7
S476 78.4 0.5 7
S477 70.0 0.5 7
S478 77.5 0.5 7
S479 77.9 0.5 7
S480 75.2 0.5 7
S481 75.7 0.5 7
S482 77.5 0.5 7
S483 78.6 0.5 7
S485 85.4 0.5 7
S486 78.7 0.5 7
S487 75.1 0.5 7
S490 72.1 0.5 7
S491 75.3 0.5 7
S492 77.9 0.5 7
S493 77.8 0.5 7
S494 78.5 0.5 7
S495 75.6 0.5 7
S496 76.0 0.5 7
S497 76.7 0.5 7
S498 77.6 0.5 7
S499 85.0 0.5 7
S500 78.8 0.5 7
S501 76.5 0.5 7
S502 76.5 0.5 7
S503 74.1 0.5 7
S505 75.9 0.5 7
S506 77.7 0.5 7
S507 77.1 0.5 7
S510 75.1 0.5 7
S511 75.8 0.5 7
S512 74.1 0.5 7
S513 74.5 0.5 7
S514 77.1 0.5 7
S515 78.2 0.5 7
S516 79.0 0.5 7
S518 76.9 0.5 7
S519 76.2 0.5 7
S521 77.2 0.5 7
S523 73.4 0.5 7
S524 77.9 0.5 7
S525 74.9 0.5 7
S526 70.3 0.5 7
S527 79.4 0.5 7
S528 72.3 0.5 7
S529 77.1 0.5 7
S530 76.3 0.5 7
S531 76.4 0.5 7
S532 73.6 0.5 7
S533 75.5 0.5 7
S534 76.0 0.5 7
S535 72.5 0.5 7
S536 74.5 0.5 7
S537 77.9 0.5 7
S538 99.0 0.5 7
S539 78.4 0.5 7
S540 78.1 0.5 7
S541 78.1 0.5 7
S542 77.4 0.5 7
S543 74.6 0.5 7
S546 70.2 0.5 7
S547 83.6 0.5 7
S548 79.7 0.5 7
S549 76.9 0.5 7
S550 77.7 0.5 7
S552 77.6 0.5 7
S553 70.2 0.5 7
S554 76.0 0.5 7
S555 79.2 0.5 7
S556 78.6 0.5 7
S557 78.0 0.5 7
S558 76.3 0.5 7
S559 74.7 0.5 7
S560 79.0 0.5 7
S561 78.3 0.5 7
S562 77.6 0.5 7
S563 74.2 0.5 7
S564 74.3 0.5 7
S565 77.0 0.5 7
S566 74.5 0.5 7
S567 72.3 0.5 7
S568 76.0 0.5 7
S569 77.6 0.5 7
S570 76.7 0.5 7
S571 80.5 0.5 7
S572 73.9 0.5 7
S573 79.4 0.5 7
S574 72.0 0.5 7
S575 77.4 0.5 7
S576 79.0 0.5 7
S577 75.3 0.5 7
S579 97.4 0.5 7
S580 79.4 0.5 7
S581 78.4 0.5 7
S582 74.7 0.5 7
S584 79.5 0.5 7
S585 76.9 0.5 7
S586 83.0 0.5 7
S587 79.9 0.5 7
S588 76.0 0.5 7
S590 74.0 0.5 7
S591 79.8 0.5 7
S592 76.8 0.5 7
S593 81.3 0.5 7
S594 77.6 0.5 7
S595 83.0 0.5 7
S596 78.8 0.5 7
S597 78.6 0.5 7
S598 80.3 0.5 7
S599 75.9 0.5 7
S600 75.3 0.5 7
S601 78.7 0.5 7
S602 75.2 0.5 7
S603 78.3 0.5 7
S604 77.6 0.5 7
S605 79.5 0.5 7
S606 74.3 0.5 7
S607 76.9 0.5 7
S608 87.6 0.5 7
S610 80.1 0.5 7
S611 73.8 0.5 7
S612 79.3 0.5 7
S613 77.9 0.5 7
S614 79.0 0.5 7
S615 77.3 0.5 7
S616 77.1 0.5 7
S617 77.3 0.5 7
S618 77.9 0.5 7
S620 78.8 0.5 7
S621 81.6 0.5 7
S622 76.8 0.5 7
S623 75.0 0.5 7
S624 82.9 0.5 7
S625 83.8 0.5 7
S626 78.0 0.5 7
S627 75.7 0.5 7
S628 75.2 0.5 7
S629 79.0 0.5 7
S630 77.8 0.5 7
S632 78.1 0.5 7
S633 73.4 0.5 7
S634 72.8 0.5 7
S635 79.0 0.5 7
S636 78.7 0.5 7
S637 79.3 0.5 7
S638 78.3 0.5 7
S639 79.4 0.5 7
S640 80.5 0.5 7
S641 76.3 0.5 7
S642 75.8 0.5 7
S643 77.8 0.5 7
S645 73.6 0.5 7
S646 77.3 0.5 7
S647 79.5 0.5 7
S649 98.2 0.5 7
S650 78.4 0.5 7
S651 82.2 0.5 7
S652 99.0 0.5 7
S653 84.9 0.5 7
S654 76.9 0.5 7
S655 81.1 0.5 7
S656 76.2 0.5 7
S657 78.0 0.5 7
S658 73.8 0.5 7
S659 71.0 0.5 7
S660 77.7 0.5 7
S661 76.4 0.5 7
S663 78.3 0.5 7
S664 79.8 0.5 7
S665 77.2 0.5 7
S666 74.1 0.5 7
S668 78.7 0.5 7
S669 80.2 0.5 7
S670 85.0 0.5 7
S671 99.0 0.5 7
S673 88.8 0.5 7
S674 99.0 0.5 7
S675 78.7 0.5 7
S676 77.5 0.5 7
S677 73.4 0.5 7
S678 76.1 0.5 7
S679 72.1 0.5 7
S680 74.4 0.5 7
S681 78.0 0.5 7
S683 78.8 0.5 7
S684 77.1 0.5 7
S685 77.2 0.5 7
S687 73.8 0.5 7
S688 77.2 0.5 7
S690 77.3 0.5 7
S692 77.6 0.5 7
S693 71.8 0.5 7
S694 71.5 0.5 7
S696 77.0 0.5 7
S697 74.8 0.5 7
S699 73.9 0.5 7
S700 72.3 0.5 7
S701 90.7 0.5 7
S702 88.0 0.5 7
S703 73.1 0.5 7
S704 81.6 0.5 7
S706 78.5 0.5 7
S707 78.1 0.5 7
S708 79.0 0.5 7
S709 70.0 0.5 7
S710 81.6 0.5 7
S712 79.2 0.5 7
S714 77.9 0.5 7
S715 76.8 0.5 7
S716 76.5 0.5 7
S717 71.2 0.5 7
S718 77.1 0.5 7
S720 89.3 0.5 7
S721 73.7 0.5 7
S722 77.2 0.5 7
S723 75.3 0.5 7
S724 81.2 0.5 7
S725 71.1 0.5 7
S726 74.2 0.5 7
S727 73.8 0.5 7
S728 76.5 0.5 7
S729 72.7 0.5 7
S730 80.1 0.5 7
S731 74.3 0.5 7
S732 86.5 0.5 7
S733 73.2 0.5 7
S735 73.5 0.5 7
S736 71.1 0.5 7
S738 70.0 0.5 7
S739 74.7 0.5 7
S741 75.2 0.5 7
S742 71.1 0.5 7
S743 84.6 0.5 7
S745 74.4 0.5 7
S746 77.7 0.5 7
S747 80.1 0.5 7
S749 73.6 0.5 7
S750 73.9 0.5 7
S752 76.0 0.5 7
S753 71.3 0.5 7
S754 76.1 0.5 7
S755 77.8 0.5 7
S756 75.5 0.5 7
S757 74.6 0.5 7
S758 75.1 0.5 7
S760 77.4 0.5 7
S761 76.6 0.5 7
S762 75.9 0.5 7
S763 77.4 0.5 7
S764 72.4 0.5 7
S765 71.7 0.5 7
S766 76.2 0.5 7
S767 76.0 0.5 7
S768 71.2 0.5 7
S769 73.5 0.5 7
S772 71.1 0.5 7
S775 74.7 0.5 7
S776 77.0 0.5 7
S778 75.8 0.5 7
S779 71.8 0.5 7
S780 72.9 0.5 7
S781 73.0 0.5 7
S782 73.1 0.5 7
S783 74.5 0.5 7
S784 77.4 0.5 7
S785 78.0 0.5 7
S786 77.9 0.5 7
S788 74.5 0.5 7
S793 79.0 0.5 7
S794 77.8 0.5 7
S796 78.5 0.5 7
S799 77.9 0.5 7
S803 71.4 0.5 7
S804 76.1 0.5 7
S805 74.0 0.5 7
S806 76.2 0.5 7
S807 77.3 0.5 7
S808 77.4 0.5 7
S810 74.0 0.5 7
S812 74.9 0.5 7
S813 77.1 0.5 7
S816 74.2 0.5 7
S818 77.6 0.5 7
S819 76.8 0.5 7
S822 73.1 0.5 7
S823 74.5 0.5 7
S826 78.8 0.5 7
S827 78.7 0.5 7
S828 73.2 0.5 7
S829 77.1 0.5 7
S836 78.2 0.5 7
S837 78.8 0.5 7
S841 77.1 0.5 7
S842 76.7 0.5 7
S846 77.8 0.5 7
S849 73.8 0.5 7
S850 72.9 0.5 7
S851 77.1 0.5 7
S856 77.7 0.5 7
S857 77.2 0.5 7
S858 75.4 0.5 7
S859 77.5 0.5 7
S860 78.5 0.5 7
S861 78.0 0.5 7
S863 77.2 0.5 7
S871 78.8 0.5 7
S872 78.8 0.5 7
S873 77.7 0.5 7
S874 78.3 0.5 7
S879 78.7 0.5 7
S880 79.0 0.5 7
S881 77.8 0.5 7
S882 77.3 0.5 7
S886 73.9 0.5 7
S889 72.2 0.5 7
S890 77.3 0.5 7
S893 78.4 0.5 7
S894 78.7 0.5 7
S895 77.0 0.5 7
S896 78.8 0.5 7
S897 75.5 0.5 7
S898 77.8 0.5 7
S899 78.5 0.5 7
S909 78.7 0.5 7
S913 71.9 0.5 7
S914 77.1 0.5 7
S915 77.8 0.5 7
S917 78.4 0.5 7
S918 77.8 0.5 7
S919 78.3 0.5 7
S920 74.3 0.5 7
S921 78.1 0.5 7
S923 77.0 0.5 7
S924 76.9 0.5 7
S925 78.9 0.5 7
S927 77.0 0.5 7
S928 73.0 0.5 7
S933 80.7 0.5 7
S942 70.0 0.5 7
S944 76.5 0.5 7
S945 74.5 0.5 7
S947 77.3 0.5 7
S949 71.6 0.5 7
S950 71.6 0.5 7
S951 76.6 0.5 7
S952 78.1 0.5 7
S958 76.4 0.5 7
S961 78.1 0.5 7
S964 76.4 0.5 7
S966 77.7 0.5 7
S969 78.8 0.5 7
S972 73.0 0.5 7
S973 70.0 0.5 7
S974 76.6 0.5 7
S975 71.4 0.5 7
S976 78.7 0.5 7
S977 77.7 0.5 7
S979 78.5 0.5 7
S981 78.6 0.5 7
S983 78.4 0.5 7
S984 79.0 0.5 7
S985 78.9 0.5 7
S988 79.0 0.5 7
S989 77.6 0.5 7
S992 78.7 0.5 7
S993 78.1 0.5 7
S998 77.7 0.5 7
S1006 78.3 0.5 7
S1007 77.8 0.5 7
S1010 76.8 0.5 7
S1011 79.8 0.5 7
S1012 77.9 0.5 7
S1013 78.7 0.5 7
S1014 78.9 0.5 7
S1015 78.4 0.5 7
S1016 78.1 0.5 7
S1017 76.9 0.5 7
S1018 75.0 0.5 7
S1019 75.9 0.5 7
S1020 77.3 0.5 7
S1021 77.8 0.5 7
S1024 79.0 0.5 7
S1025 79.0 0.5 7
S1026 78.9 0.5 7
S1027 79.0 0.5 7
S1033 79.0 0.5 7
S1034 78.7 0.5 7
S1035 77.2 0.5 7
S1036 78.5 0.5 7
S1038 78.4 0.5 7
S1039 77.4 0.5 7
S1040 75.9 0.5 7
S1042 78.5 0.5 7
S1044 78.9 0.5 7
S1045 76.7 0.5 7
S1047 75.5 0.5 7
S1048 77.1 0.5 7
S1049 79.0 0.5 7
S1050 78.9 0.5 7
S1051 76.3 0.5 7
S1055 79.0 0.5 7
S1057 75.8 0.5 7
S1058 74.3 0.5 7
S1059 77.2 0.5 7
S1061 77.4 0.5 7
S1064 74.9 0.5 7
S1065 77.9 0.5 7
S1068 73.3 0.5 7
S1069 73.0 0.5 7
S1070 77.4 0.5 7
S1071 79.3 0.5 7
S1074 77.0 0.5 7
S1075 78.4 0.5 7
S1076 79.0 0.5 7
S1077 78.7 0.5 7
S1078 78.1 0.5 7
S1079 78.8 0.5 7
S1080 75.9 0.5 7
S1081 78.5 0.5 7
S1082 74.2 0.5 7
S1083 79.0 0.5 7
S1084 78.0 0.5 7
S1085 76.8 0.5 7
S1088 75.6 0.5 7
S1089 73.9 0.5 7
S1090 79.8 0.5 7
S1092 72.7 0.5 7
S1093 81.7 0.5 7
S1094 99.0 0.5 7
S1095 83.0 0.5 7
S1096 78.9 0.5 7
S1097 79.0 0.5 7
S1098 78.0 0.5 7
S1099 79.2 0.5 7
S1100 78.7 0.5 7
S1101 78.9 0.5 7
S1102 78.8 0.5 7
S1105 78.4 0.5 7
S1106 77.1 0.5 7
S1108 78.5 0.5 7
S1109 78.6 0.5 7
S1110 78.5 0.5 7
S1111 79.1 0.5 7
S1112 75.0 0.5 7
S1113 78.2 0.5 7
S1114 78.2 0.5 7
S1115 76.4 0.5 7
S1116 79.0 0.5 7
S1117 78.9 0.5 7
S1120 77.3 0.5 7
S1121 77.1 0.5 7
S1122 79.0 0.5 7
S1123 78.9 0.5 7
S1125 90.3 0.5 7
S1126 79.0 0.5 7
S1127 92.5 0.5 7
S1128 85.1 0.5 7
S1130 78.1 0.5 7
S1132 78.8 0.5 7
S1133 80.1 0.5 7
S1134 78.4 0.5 7
S1136 72.8 0.5 7
S1137 76.1 0.5 7
S1138 75.9 0.5 7
S1140 75.9 0.5 7
S1141 79.0 0.5 7
S1142 78.6 0.5 7
S1143 76.0 0.5 7
S1144 79.6 0.5 7
S1145 78.5 0.5 7
S1146 77.8 0.5 7
S1147 77.6 0.5 7
S1148 75.6 0.5 7
S1149 77.4 0.5 7
S1150 75.8 0.5 7
S1151 75.2 0.5 7
S1152 78.5 0.5 7
S1153 77.0 0.5 7
S1154 80.2 0.5 7
S1155 78.6 0.5 7
S1156 78.7 0.5 7
S1157 79.0 0.5 7
S1159 77.3 0.5 7
S1160 78.9 0.5 7
S1161 78.9 0.5 7
S1162 78.8 0.5 7
S1163 78.7 0.5 7
S1164 77.8 0.5 7
S1165 77.0 0.5 7
S1166 78.9 0.5 7
S1167 79.0 0.5 7
S1169 75.1 0.5 7
S1172 76.0 0.5 7
S1173 79.0 0.5 7
S1174 78.9 0.5 7
S1175 72.9 0.5 7
S1176 78.5 0.5 7
S1177 78.8 0.5 7
S1179 78.6 0.5 7
S1180 78.5 0.5 7
S1181 79.0 0.5 7
S1182 80.2 0.5 7
S1183 73.0 0.5 7
S1184 74.0 0.5 7
S1186 79.1 0.5 7
S1187 78.8 0.5 7
S1188 78.9 0.5 7
S1189 79.0 0.5 7
S1190 79.0 0.5 7
S1191 77.2 0.5 7
S1192 79.0 0.5 7
S1193 79.0 0.5 7
S1194 78.6 0.5 7
S1195 78.4 0.5 7
S1196 71.6 0.5 7
S1197 77.3 0.5 7
S1200 71.2 0.5 7
S1201 75.5 0.5 7
S1202 77.7 0.5 7
S1203 76.0 0.5 7
S1205 78.0 0.5 7
S1206 83.9 0.5 7
S1207 77.1 0.5 7
S1208 79.0 0.5 7
S1209 79.0 0.5 7
S1210 87.0 0.5 7
S1211 74.4 0.5 7
S1212 78.5 0.5 7
S1213 78.7 0.5 7
S1215 78.5 0.5 7
S1216 75.5 0.5 7
S1217 78.2 0.5 7
S1218 78.9 0.5 7
S1221 84.1 0.5 7
S1222 79.0 0.5 7
S1223 78.9 0.5 7
S1224 78.2 0.5 7
S1225 78.6 0.5 7
S1226 77.8 0.5 7
S1227 77.8 0.5 7
S1228 78.8 0.5 7
S1229 79.0 0.5 7
S1230 78.8 0.5 7
S1231 80.4 0.5 7
S1232 78.7 0.5 7
S1233 79.1 0.5 7
S1234 78.9 0.5 7
S1235 78.9 0.5 7
S1236 78.7 0.5 7
S1237 77.3 0.5 7
S1238 78.1 0.5 7
S1239 78.7 0.5 7
S1240 78.6 0.5 7
S1241 78.9 0.5 7
S1242 79.0 0.5 7
S1243 79.0 0.5 7
S1244 79.0 0.5 7
S1245 78.9 0.5 7
S1246 78.9 0.5 7
S1247 78.2 0.5 7
S1248 78.8 0.5 7
S1249 76.7 0.5 7
S1250 76.6 0.5 7
S1251 77.4 0.5 7
S1252 78.2 0.5 7
S1254 79.1 0.5 7
S1255 79.0 0.5 7
S1256 78.8 0.5 7
S1257 78.4 0.5 7
S1258 78.4 0.5 7
S1259 78.7 0.5 7
S1260 81.1 0.5 7
S1261 78.6 0.5 7
S1262 78.9 0.5 7
S1263 78.9 0.5 7
S1264 78.8 0.5 7
S1265 78.9 0.5 7
S1266 78.3 0.5 7
S1267 79.2 0.5 7
S1268 78.3 0.5 7
S1269 79.6 0.5 7
S1271 78.4 0.5 7
S1272 79.0 0.5 7
S1273 79.0 0.5 7
S1274 78.7 0.5 7
S1275 78.9 0.5 7
S1276 77.6 0.5 7
S1277 78.0 0.5 7
S1280 78.8 0.5 7
S1281 78.9 0.5 7
S1282 78.8 0.5 7
S1283 79.0 0.5 7
S1284 78.2 0.5 7
S1285 78.6 0.5 7
S1286 78.7 0.5 7
S1287 77.0 0.5 7
S1288 78.8 0.5 7
S1291 77.1 0.5 7
S1292 77.9 0.5 7
S1293 78.3 0.5 7
S1294 78.8 0.5 7
S1295 78.6 0.5 7
S1296 78.2 0.5 7
S1297 78.6 0.5 7
S1298 77.8 0.5 7
S1299 78.2 0.5 7
S1300 79.0 0.5 7
S1301 77.5 0.5 7
S1302 77.9 0.5 7
S1303 79.2 0.5 7
S1304 78.5 0.5 7
S1305 77.1 0.5 7
S1307 78.6 0.5 7
S1308 78.3 0.5 7
S1309 80.2 0.5 7
S1310 80.0 0.5 7
S1313 79.0 0.5 7
S1314 78.8 0.5 7
S1316 78.9 0.5 7
S1318 78.8 0.5 7
S1319 78.9 0.5 7
S1320 79.0 0.5 7
S1321 78.4 0.5 7
S1322 78.6 0.5 7
S1323 78.6 0.5 7
S1324 79.0 0.5 7
S1325 78.1 0.5 7
S1326 78.8 0.5 7
S1327 78.4 0.5 7
S1328 73.4 0.5 7
S1329 77.0 0.5 7
S1331 75.5 0.5 7
S1332 78.2 0.5 7
S1333 78.1 0.5 7
S1334 78.6 0.5 7
S1339 79.0 0.5 7
S1340 79.0 0.5 7
S1341 79.0 0.5 7
S1342 78.1 0.5 7
S1343 79.1 0.5 7
S1344 79.0 0.5 7
S1346 78.4 0.5 7
S1347 78.8 0.5 7
S1348 78.8 0.5 7
S1349 78.8 0.5 7
S1350 78.7 0.5 7
S1351 77.4 0.5 7
S1352 78.9 0.5 7
S1353 78.7 0.5 7
S1354 76.0 0.5 7
S1355 78.8 0.5 7
S1356 78.8 0.5 7
S1357 79.0 0.5 7
S1358 79.0 0.5 7
S1359 78.2 0.5 7
S1360 78.9 0.5 7
S1361 79.0 0.5 7
S1362 78.4 0.5 7
S1363 79.0 0.5 7
S1364 79.3 0.5 7
S1365 78.8 0.5 7
S1366 78.6 0.5 7
S1367 77.7 0.5 7
S1368 78.7 0.5 7
S1369 78.6 0.5 7
S1370 79.1 0.5 7
S1371 76.1 0.5 7
S1372 78.9 0.5 7
S1374 78.8 0.5 7
S1375 77.8 0.5 7
S1377 78.7 0.5 7
S1378 77.0 0.5 7
S1380 78.6 0.5 7
S1382 78.7 0.5 7
S1383 78.6 0.5 7
S1384 78.0 0.5 7
S1385 79.0 0.5 7
S1386 78.7 0.5 7
S1387 78.6 0.5 7
S1389 74.5 0.5 7
S1391 78.3 0.5 7
S1392 79.0 0.5 7
S1394 78.7 0.5 7
S1395 78.3 0.5 7
S1396 77.9 0.5 7
S1397 78.3 0.5 7
S1398 78.4 0.5 7
S1399 79.0 0.5 7
S1400 76.9 0.5 7
S1401 77.2 0.5 7
S1404 80.1 0.5 7
S1405 85.3 0.5 7
S1406 79.0 0.5 7
S1407 78.6 0.5 7
S1408 79.2 0.5 7
S1409 79.0 0.5 7
S1410 78.2 0.5 7
S1411 78.9 0.5 7
S1412 78.3 0.5 7
S1413 79.0 0.5 7
S1414 78.8 0.5 7
S1415 78.8 0.5 7
S1416 78.5 0.5 7
S1417 78.7 0.5 7
S1418 78.5 0.5 7
S1419 72.0 0.5 7
S1420 79.7 0.5 7
S1421 78.3 0.5 7
S1422 79.7 0.5 7
S1423 81.6 0.5 7
S1424 76.1 0.5 7
S1425 78.0 0.5 7
S1426 78.8 0.5 7
S1427 78.6 0.5 7
S1428 78.6 0.5 7
S1430 79.1 0.5 7
S1431 79.0 0.5 7
S1432 78.0 0.5 7
S1433 79.6 0.5 7
S1435 79.0 0.5 7
S1436 79.0 0.5 7
S1438 77.8 0.5 7
S1440 78.7 0.5 7
S1445 77.6 0.5 7
S1446 79.0 0.5 7
S1447 79.6 0.5 7
S1449 71.0 0.5 7
S1450 78.2 0.5 7
S1452 79.0 0.5 7
S1453 76.5 0.5 7
S1454 81.7 0.5 7
S1455 83.4 0.5 7
S1457 96.2 0.5 7
S1458 85.6 0.5 7
S1459 78.1 0.5 7
S1460 74.0 0.5 7
S1461 78.9 0.5 7
S1463 78.6 0.5 7
S1464 78.4 0.5 7
S1465 80.3 0.5 7
S1466 79.2 0.5 7
S1467 78.8 0.5 7
S1468 76.4 0.5 7
S1469 78.5 0.5 7
S1470 78.4 0.5 7
S1471 78.8 0.5 7
S1472 78.6 0.5 7
S1475 78.7 0.5 7
S1476 80.9 0.5 7
S1477 78.1 0.5 7
S1485 79.4 0.5 7
S1486 78.2 0.5 7
S1491 79.0 0.5 7
S1493 78.9 0.5 7
S1494 78.8 0.5 7
S1497 78.0 0.5 7
S1500 79.3 0.5 7
S1501 78.8 0.5 7
S1502 77.2 0.5 7
S1503 80.1 0.5 7
S1504 78.0 0.5 7
S1505 78.3 0.5 7
S1508 78.9 0.5 7
S1509 79.1 0.5 7
S1512 79.1 0.5 7
S1515 77.8 0.5 7
S1516 78.0 0.5 7
S1517 78.2 0.5 7
S1520 77.6 0.5 7
S1521 78.9 0.5 7
S1523 79.0 0.5 7
S1524 78.3 0.5 7
S1525 78.7 0.5 7
S1526 76.8 0.5 7
S1528 78.8 0.5 7
S1529 78.9 0.5 7
S1530 79.0 0.5 7
S1531 78.2 0.5 7
S1532 84.0 0.5 7
S1533 79.0 0.5 7
S1534 79.0 0.5 7
S1535 82.1 0.5 7
S1536 78.1 0.5 7
S1537 86.9 0.5 7
S1538 87.2 0.5 7
S1539 78.4 0.5 7
S1540 79.1 0.5 7
S1541 78.4 0.5 7
S1542 79.0 0.5 7
S1543 79.0 0.5 7
S1544 78.8 0.5 7
S1545 78.9 0.5 7
S1546 74.7 0.5 7
S1547 78.9 0.5 7
S1548 79.0 0.5 7
S1549 79.0 0.5 7
S1550 78.7 0.5 7
S1552 78.2 0.5 7
S1561 79.4 0.5 7
S1562 78.5 0.5 7
S1563 78.7 0.5 7
S1564 76.4 0.5 7
S1565 78.0 0.5 7
S1566 78.3 0.5 7
S1567 77.6 0.5 7
S1568 78.7 0.5 7
S1569 76.2 0.5 7
S1570 79.3 0.5 7
S1573 79.0 0.5 7
S1574 75.2 0.5 7
S1575 76.6 0.5 7
S1576 78.3 0.5 7
S1577 76.8 0.5 7
S1578 78.1 0.5 7
S1584 76.4 0.5 7
S1585 78.5 0.5 7
S1588 78.4 0.5 7
S1589 78.6 0.5 7
S1591 78.4 0.5 7
S1592 78.7 0.5 7
S1597 79.0 0.5 7
S1598 76.5 0.5 7
S1599 78.6 0.5 7
S1602 78.9 0.5 7
S1603 78.7 0.5 7
S1604 79.0 0.5 7
S1606 78.6 0.5 7
S1609 78.4 0.5 7
S1610 78.3 0.5 7
S1613 78.2 0.5 7
S1614 78.8 0.5 7
S1615 76.6 0.5 7
S1616 77.9 0.5 7
S1621 77.7 0.5 7
S1622 77.9 0.5 7
S1623 78.6 0.5 7
S1628 76.3 0.5 7
S1629 76.5 0.5 7
S1631 78.8 0.5 7
S1633 78.9 0.5 7
S1634 77.9 0.5 7
S1635 78.9 0.5 7
S1636 78.3 0.5 7
S1637 78.8 0.5 7
S1638 78.5 0.5 7
S1639 78.0 0.5 7
S1641 77.6 0.5 7
S1642 78.7 0.5 7
S1643 77.1 0.5 7
S1645 77.9 0.5 7
S1646 78.1 0.5 7
S1649 78.1 0.5 7
S1650 78.4 0.5 7
S1651 78.4 0.5 7
S1652 78.4 0.5 7
S1655 78.7 0.5 7
S1656 78.7 0.5 7
S1657 78.6 0.5 7
S1664 78.0 0.5 7
S1665 78.2 0.5 7
S1670 77.7 0.5 7
S1674 79.2 0.5 7
S1680 78.6 0.5 7
S1690 77.4 0.5 7
S1691 77.6 0.5 7
S1696 77.5 0.5 7
S1697 75.4 0.5 7
S1703 78.9 0.5 7
S1707 81.3 0.5 7
S1710 78.6 0.5 7
S1711 78.8 0.5 7
S1712 77.9 0.5 7
S1713 78.8 0.5 7
S1716 85.4 0.5 7
S1717 79.2 0.5 7
S1719 78.9 0.5 7
S1720 79.0 0.5 7
S1723 78.6 0.5 7
S1726 79.0 0.5 7
S1727 77.9 0.5 7
S1728 83.2 0.5 7
S1729 79.5 0.5 7
S1730 78.6 0.5 7
S1731 79.0 0.5 7
S1732 79.1 0.5 7
S1734 79.1 0.5 7
S1750 79.3 0.5 7
S1753 79.1 0.5 7
S1754 89.5 0.5 7
S1757 77.6 0.5 7
S1759 79.0 0.5 7
S1760 78.1 0.5 7
S1764 79.8 0.5 7
S1765 81.3 0.5 7
S1769 77.6 0.5 7
S1776 80.7 0.5 7
S1777 78.9 0.5 7
S1782 78.3 0.5 7
S1784 75.6 0.5 7
S1788 78.9 0.5 7
S1790 79.0 0.5 7
S1798 83.2 0.5 7
S1799 77.7 0.5 7
S1802 75.8 0.5 7
S1808 77.7 0.5 7
S1813 77.0 0.5 7
S1814 78.3 0.5 7
S1815 76.0 0.5 7
S1816 78.2 0.5 7
S1817 78.5 0.5 7
S1819 77.9 0.5 7
S1820 78.5 0.5 7
S1824 78.8 0.5 7
S1827 78.0 0.5 7
S1828 78.9 0.5 7
S1829 78.9 0.5 7
S1830 78.9 0.5 7
S1831 78.9 0.5 7
S1832 78.5 0.5 7
S1833 79.0 0.5 7
S1835 78.6 0.5 7
S1836 78.2 0.5 7
S1840 78.9 0.5 7
S1844 79.0 0.5 7
S1846 77.9 0.5 7
S1847 78.7 0.5 7
S1848 79.0 0.5 7
S1851 81.2 0.5 7
S1852 80.7 0.5 7
S1853 72.7 0.5 7
S1854 82.0 0.5 7
S1856 77.0 0.5 7
S1857 78.9 0.5 7
S1859 78.5 0.5 7
S1860 78.8 0.5 7
S1861 78.7 0.5 7
S1862 79.0 0.5 7
S1863 77.4 0.5 7
S1864 78.1 0.5 7
S1865 78.8 0.5 7
S1866 78.7 0.5 7
S1870 84.4 0.5 7
S1871 79.2 0.5 7
S1874 73.3 0.5 7
S1875 77.9 0.5 7
S1876 78.7 0.5 7
S1888 78.4 0.5 7
S1891 79.0 0.5 7
S1892 80.9 0.5 7
S1896 79.4 0.5 7
S1897 82.5 0.5 7
S1898 78.3 0.5 7
S1901 83.2 0.5 7
S1902 79.9 0.5 7
S1903 79.0 0.5 7
S1904 78.8 0.5 7
S1906 78.3 0.5 7
S1908 79.2 0.5 7
S1909 79.5 0.5 7
S1926 77.7 0.5 7
S1929 78.5 0.5 7
S1934 78.9 0.5 7
S1937 78.8 0.5 7
S1938 79.0 0.5 7
S1940 78.5 0.5 7
S1941 79.4 0.5 7
S1944 77.9 0.5 7
S1945 77.8 0.5 7
S1948 79.0 0.5 7
S1949 79.4 0.5 7
S1956 78.7 0.5 7
S1957 77.5 0.5 7
S1960 79.0 0.5 7
S1961 78.9 0.5 7
S1980 77.1 0.5 7
S1981 78.6 0.5 7
S1987 78.2 0.5 7
S1988 76.3 0.5 7

[JUNCTIONS]
N0 6.098 1.878 0 0 0
N2 6.955 0.600 0 0 0
N4 7.515 0.780 0 0 0
N6 6.753 1.200 0 0 0
N7 5.565 6.091 0 0 0
N9 10.560 0.900 0 0 0
N11 10.589 0.900 0 0 0
N13 6.506 0.820 0 0 0
N15 6.353 1.200 0 0 0
N17 6.819 1.050 0 0 0
N19 6.261 1.200 0 0 0
N21 7.803 0.900 0 0 0
N22 6.809 1.744 0 0 0
N24 12.474 0.990 0 0 0
N26 2.496 0.611 0 0 0
N28 3.308 1.080 0 0 0
N30 3.627 0.888 0 0 0
N32 3.058 0.595 0 0 0
N34 2.638 0.666 0 0 0
N36 2.268 1.101 0 0 0
N38 2.436 0.610 0 0 0
N40 3.711 1.231 0 0 0
N42 2.613 0.720 0 0 0
N44 1.902 0.955 0 0 0
N46 2.087 1.100 0 0 0
N48 2.358 0.664 0 0 0
N51 2.485 0.910 0 0 0
N52 1.966 0.996 0 0 0
N54 1.846 1.770 0 0 0
N56 2.954 1.623 0 0 0
N58 2.613 1.068 0 0 0
N60 2.769 0.670 0 0 0
N62 2.344 0.646 0 0 0
N64 3.689 0.646 0 0 0
N66 2.698 0.690 0 0 0
N68 6.056 1.800 0 0 0
N70 5.291 1.940 0 0 0
N72 2.207 1.030 0 0 0
N74 2.986 0.910 0 0 0
N76 2.710 1.280 0 0 0
N78 1.622 1.310 0 0 0
N80 2.321 1.250 0 0 0
N82 1.594 0.985 0 0 0
N84 2.183 1.190 0 0 0
N86 1.896 1.240 0 0 0
N88 2.403 0.640 0 0 0
N90 2.289 0.440 0 0 0
N92 7.516 1.032 0 0 0
N94 6.833 1.075 0 0 0
N95 5.986 2.339 0 0 0
N96 6.739 0.957 0 0 0
N98 6.921 1.379 0 0 0
N100 6.311 0.590 0 0 0
N102 3.540 1.423 0 0 0
N104 3.065 1.251 0 0 0
N106 4.219 0.630 0 0 0
N108 4.963 0.841 0 0 0
N110 6.628 1.225 0 0 0
N112 2.756 0.493 0 0 0
N113 1.739 1.779 0 0 0
N114 2.480 0.641 0 0 0
N116 2.061 1.749 0 0 0
N117 3.292 0.373 0 0 0
N119 2.718 0.500 0 0 0
N121 3.182 0.562 0 0 0
N123 3.396 0.718 0 0 0
N125 2.538 0.683 0 0 0
N127 2.635 0.737 0 0 0
N129 3.144 0.538 0 0 0
N131 2.396 0.618 0 0 0
N133 2.468 0.530 0 0 0
N135 2.689 0.550 0 0 0
N137 2.635 0.620 0 0 0
N139 2.438 1.174 0 0 0
N141 2.898 0.633 0 0 0
N143 2.468 0.685 0 0 0
N145 2.869 0.899 0 0 0
N147 2.869 0.900 0 0 0
N149 3.268 1.156 0 0 0
N151 2.927 0.588 0 0 0
N153 2.724 0.512 0 0 0
N155 2.624 0.699 0 0 0
N157 2.412 0.734 0 0 0
N159 2.798 0.349 0 0 0
N161 5.698 0.664 0 0 0
N163 2.547 1.278 0 0 0
N165 2.406 0.590 0 0 0
N167 2.851 0.736 0 0 0
N169 2.268 0.797 0 0 0
N171 3.799 0.684 0 0 0
N173 2.698 0.947 0 0 0
N175 2.472 0.930 0 0 0
N177 9.063 1.060 0 0 0
N179 5.936 1.290 0 0 0
N180 0.000 6.360 0 0 0
N181 4.441 1.320 0 0 0
N182 6.426 0.974 0 0 0
N183 1.286 0.990 0 0 0
N184 1.266 1.556 0 0 0
N186 2.198 0.573 0 0 0
N187 4.877 0.627 0 0 0
N189 1.747 3.701 0 0 0
N191 1.879 1.352 0 0 0
N193 3.168 0.739 0 0 0
N197 2.197 2.742 0 0 0
N199 2.398 0.734 0 0 0
N200 2.349 3.251 0 0 0
N202 2.387 0.997 0 0 0
N204 3.971 1.348 0 0 0
N206 2.598 2.080 0 0 0
N210 2.654 0.594 0 0 0
N211 2.986 3.483 0 0 0
N213 3.665 0.677 0 0 0
N214 2.930 0.677 0 0 0
N216 5.148 1.065 0 0 0
N217 3.523 1.533 0 0 0
N219 2.546 0.800 0 0 0
N220 3.157 1.530 0 0 0
N222 4.197 1.610 0 0 0
N224 3.446 2.140 0 0 0
N226 6.302 1.040 0 0 0
N228 4.963 1.370 0 0 0
N231 5.424 1.330 0 0 0
N233 4.307 1.450 0 0 0
N235 5.422 1.900 0 0 0
N237 5.614 1.220 0 0 0
N239 7.564 1.460 0 0 0
N241 2.686 1.450 0 0 0
N243 4.316 1.350 0 0 0
N245 6.679 1.040 0 0 0
N247 3.646 1.830 0 0 0
N248 3.526 1.390 0 0 0
N250 3.598 1.780 0 0 0
N252 6.645 1.550 0 0 0
N254 4.640 0.930 0 0 0
N256 4.432 1.660 0 0 0
N258 4.011 1.340 0 0 0
N260 5.934 2.170 0 0 0
N262 4.424 1.240 0 0 0
N264 5.583 1.030 0 0 0
N266 4.228 1.500 0 0 0
N269 5.641 0.850 0 0 0
N271 4.026 1.830 0 0 0
N273 3.679 1.260 0 0 0
N275 3.868 1.960 0 0 0
N277 3.741 2.140 0 0 0
N279 3.126 1.040 0 0 0
N281 3.225 1.090 0 0 0
N283 3.286 1.080 0 0 0
N284 2.960 1.310 0 0 0
N286 3.577 1.290 0 0 0
N287 3.107 1.890 0 0 0
N288 3.476 3.136 0 0 0
N289 4.226 2.008 0 0 0
N290 4.924 1.600 0 0 0
N291 3.481 1.120 0 0 0
N293 1.468 1.500 0 0 0
N296 3.486 1.525 0 0 0
N297 3.513 0.800 0 0 0
N298 3.275 1.170 0 0 0
N300 3.162 1.500 0 0 0
N302 3.253 1.360 0 0 0
N304 3.497 1.120 0 0 0
N306 3.068 1.010 0 0 0
N308 3.656 1.090 0 0 0
N309 2.127 1.986 0 0 0
N310 3.550 1.220 0 0 0
N311 3.200 1.540 0 0 0
N312 2.460 2.580 0 0 0
N313 3.325 1.100 0 0 0
N314 3.253 1.912 0 0 0
N315 3.588 1.330 0 0 0
N317 4.724 1.550 0 0 0
N318 3.462 2.271 0 0 0
N320 4.172 1.390 0 0 0
N322 5.443 1.780 0 0 0
N324 4.547 1.550 0 0 0
N326 4.001 1.550 0 0 0
N329 3.978 2.170 0 0 0
N330 6.158 2.160 0 0 0
N332 8.122 2.700 0 0 0
N334 4.181 1.730 0 0 0
N337 2.994 1.380 0 0 0
N338 3.262 2.620 0 0 0
N340 4.432 3.160 0 0 0
N342 3.951 1.830 0 0 0
N343 3.313 1.350 0 0 0
N345 3.212 1.040 0 0 0
N347 5.904 1.750 0 0 0
N349 2.861 1.400 0 0 0
N351 3.262 1.420 0 0 0
N353 5.878 1.030 0 0 0
N355 7.052 1.270 0 0 0
N357 1.703 2.140 0 0 0
N359 4.812 1.260 0 0 0
N360 3.744 1.330 0 0 0
N361 3.632 1.330 0 0 0
N362 3.357 1.370 0 0 0
N365 5.622 1.120 0 0 0
N367 2.981 1.110 0 0 0
N369 3.031 1.410 0 0 0
N371 4.407 0.750 0 0 0
N373 4.130 0.950 0 0 0
N375 4.062 0.750 0 0 0
N377 4.111 1.050 0 0 0
N378 3.707 1.050 0 0 0
N379 4.062 0.950 0 0 0
N381 4.203 0.750 0 0 0
N383 4.450 0.750 0 0 0
N385 4.304 1.050 0 0 0
N387 4.450 0.700 0 0 0
N388 5.050 2.050 0 0 0
N390 6.745 1.230 0 0 0
N392 4.251 2.258 0 0 0
N393 2.988 3.327 0 0 0
N394 4.985 1.100 0 0 0
N395 4.140 1.100 0 0 0
N396 5.471 0.920 0 0 0
N398 5.295 0.890 0 0 0
N400 6.060 0.930 0 0 0
N402 5.272 0.970 0 0 0
N404 5.200 1.020 0 0 0
N406 5.402 0.800 0 0 0
N408 5.420 1.060 0 0 0
N410 5.463 0.840 0 0 0
N412 4.854 1.050 0 0 0
N414 5.569 0.900 0 0 0
N416 5.455 1.260 0 0 0
N417 4.940 1.366 0 0 0
N418 5.138 0.920 0 0 0
N420 4.963 1.180 0 0 0
N422 5.879 1.340 0 0 0
N424 5.457 0.910 0 0 0
N426 5.841 1.080 0 0 0
N428 5.241 0.860 0 0 0
N430 5.852 1.230 0 0 0
N432 4.968 1.430 0 0 0
N434 6.164 1.280 0 0 0
N436 6.033 1.180 0 0 0
N437 5.145 1.744 0 0 0
N438 5.479 1.160 0 0 0
N440 5.547 1.180 0 0 0
N441 4.965 1.517 0 0 0
N442 5.755 0.870 0 0 0
N443 5.713 1.122 0 0 0
N445 5.467 0.950 0 0 0
N447 5.294 0.920 0 0 0
N449 6.036 1.040 0 0 0
N450 5.145 1.584 0 0 0
N451 6.184 0.730 0 0 0
N454 5.147 1.230 0 0 0
N456 4.829 1.220 0 0 0
N458 5.085 1.180 0 0 0
N460 5.887 0.940 0 0 0
N462 5.881 0.680 0 0 0
N464 4.988 1.450 0 0 0
N466 5.299 0.920 0 0 0
N468 5.700 1.000 0 0 0
N469 4.423 1.728 0 0 0
N470 5.738 1.100 0 0 0
N472 5.282 0.990 0 0 0
N474 9.633 1.150 0 0 0
N476 4.793 1.440 0 0 0
N478 5.310 0.810 0 0 0
N480 4.877 1.080 0 0 0
N482 4.689 0.740 0 0 0
N484 5.290 0.910 0 0 0
N486 6.025 1.120 0 0 0
N488 4.499 1.140 0 0 0
N492 5.398 1.510 0 0 0
N494 6.061 0.950 0 0 0
N495 4.271 2.288 0 0 0
N497 5.287 1.140 0 0 0
N498 4.649 1.416 0 0 0
N499 4.925 0.770 0 0 0
N500 4.649 1.251 0 0 0
N501 4.649 1.161 0 0 0
N503 4.755 0.870 0 0 0
N504 4.694 0.911 0 0 0
N505 4.820 1.280 0 0 0
N507 4.329 0.670 0 0 0
N509 4.637 0.710 0 0 0
N511 4.228 0.800 0 0 0
N513 4.443 1.170 0 0 0
N515 4.014 0.880 0 0 0
N516 3.172 1.682 0 0 0
N518 3.947 1.678 0 0 0
N520 4.434 1.010 0 0 0
N522 5.002 0.810 0 0 0
N523 4.130 1.782 0 0 0
N525 4.414 0.820 0 0 0
N527 4.097 1.020 0 0 0
N529 3.677 0.790 0 0 0
N531 3.132 2.500 0 0 0
N533 5.087 1.520 0 0 0
N534 4.675 1.520 0 0 0
N536 4.902 0.920 0 0 0
N538 5.199 1.040 0 0 0
N539 4.185 1.340 0 0 0
N541 4.473 1.170 0 0 0
N543 5.209 0.930 0 0 0
N544 4.482 1.080 0 0 0
N546 4.510 1.100 0 0 0
N547 4.464 1.050 0 0 0
N549 3.942 1.834 0 0 0
N551 5.875 1.270 0 0 0
N553 4.238 0.760 0 0 0
N554 3.786 1.418 0 0 0
N555 3.786 1.310 0 0 0
N556 4.121 0.880 0 0 0
N557 3.571 1.060 0 0 0
N559 3.784 0.950 0 0 0
N561 4.950 1.160 0 0 0
N562 4.736 0.850 0 0 0
N563 4.634 1.100 0 0 0
N564 4.029 1.220 0 0 0
N566 3.826 1.600 0 0 0
N567 3.421 1.951 0 0 0
N568 2.432 1.726 0 0 0
N570 2.085 1.763 0 0 0
N571 2.412 2.016 0 0 0
N572 3.098 0.800 0 0 0
N574 3.687 0.950 0 0 0
N576 3.528 1.100 0 0 0
N580 2.987 1.050 0 0 0
N582 4.017 0.710 0 0 0
N584 2.316 0.900 0 0 0
N586 2.231 0.950 0 0 0
N587 2.188 1.362 0 0 0
N588 2.227 1.150 0 0 0
N590 1.806 1.050 0 0 0
N592 2.787 0.950 0 0 0
N594 3.701 0.850 0 0 0
N596 2.007 1.535 0 0 0
N598 2.931 0.600 0 0 0
N600 1.729 1.050 0 0 0
N601 0.379 3.038 0 0 0
N602 2.216 1.322 0 0 0
N603 2.227 1.556 0 0 0
N604 2.788 0.900 0 0 0
N605 2.394 0.780 0 0 0
N607 2.792 0.650 0 0 0
N609 3.127 1.180 0 0 0
N611 2.931 0.790 0 0 0
N613 2.561 1.660 0 0 0
N615 2.194 1.110 0 0 0
N617 5.430 1.660 0 0 0
N619 2.174 1.300 0 0 0
N621 3.736 0.640 0 0 0
N623 2.949 0.920 0 0 0
N625 3.085 1.260 0 0 0
N626 1.607 2.547 0 0 0
N627 2.667 2.535 0 0 0
N629 3.370 0.790 0 0 0
N631 3.757 0.860 0 0 0
N633 3.675 0.910 0 0 0
N634 3.264 1.582 0 0 0
N635 3.058 1.220 0 0 0
N637 3.852 0.640 0 0 0
N639 3.824 0.880 0 0 0
N641 3.294 1.000 0 0 0
N643 3.755 0.920 0 0 0
N645 3.469 0.940 0 0 0
N647 4.272 1.230 0 0 0
N648 4.082 2.023 0 0 0
N650 4.791 0.980 0 0 0
N652 4.530 0.900 0 0 0
N654 4.130 1.010 0 0 0
N655 3.917 1.010 0 0 0
N657 3.473 1.140 0 0 0
N659 4.006 0.880 0 0 0
N661 4.453 1.140 0 0 0
N663 2.482 1.130 0 0 0
N664 2.189 1.984 0 0 0
N665 2.416 1.170 0 0 0
N667 2.605 1.060 0 0 0
N670 2.211 1.150 0 0 0
N672 3.357 0.970 0 0 0
N673 2.639 1.290 0 0 0
N674 2.630 1.659 0 0 0
N675 3.017 1.010 0 0 0
N676 2.850 1.197 0 0 0
N677 2.644 1.104 0 0 0
N678 2.644 1.411 0 0 0
N680 2.381 2.177 0 0 0
N682 3.528 1.110 0 0 0
N683 2.851 1.363 0 0 0
N684 2.886 0.940 0 0 0
N686 4.149 0.900 0 0 0
N688 4.034 1.240 0 0 0
N691 2.490 1.241 0 0 0
N692 3.739 0.870 0 0 0
N693 2.923 1.201 0 0 0
N695 3.168 0.830 0 0 0
N696 2.723 1.020 0 0 0
N697 3.910 0.450 0 0 0
N699 2.391 2.572 0 0 0
N700 3.552 2.210 0 0 0
N701 3.331 1.050 0 0 0
N703 4.429 0.850 0 0 0
N705 3.556 1.090 0 0 0
N707 3.866 0.960 0 0 0
N709 3.029 1.170 0 0 0
N710 2.847 1.314 0 0 0
N712 2.911 1.460 0 0 0
N714 3.749 2.380 0 0 0
N716 4.083 0.960 0 0 0
N718 3.684 0.950 0 0 0
N721 3.038 0.680 0 0 0
N723 4.517 1.140 0 0 0
N724 2.630 1.729 0 0 0
N727 2.904 1.210 0 0 0
N728 4.194 0.450 0 0 0
N730 3.869 0.980 0 0 0
N731 3.796 1.343 0 0 0
N733 3.591 1.734 0 0 0
N734 3.591 1.520 0 0 0
N736 3.425 1.150 0 0 0
N738 3.632 0.920 0 0 0
N740 3.510 1.170 0 0 0
N742 2.531 2.031 0 0 0
N743 3.581 0.968 0 0 0
N744 3.954 1.030 0 0 0
N746 3.816 1.360 0 0 0
N747 3.600 1.360 0 0 0
N748 2.980 1.646 0 0 0
N749 4.103 0.660 0 0 0
N750 4.004 0.650 0 0 0
N752 4.845 0.650 0 0 0
N754 3.264 0.800 0 0 0
N756 4.978 1.050 0 0 0
N758 3.400 0.860 0 0 0
N760 3.463 1.340 0 0 0
N762 3.164 0.820 0 0 0
N763 2.686 1.325 0 0 0
N764 3.689 1.450 0 0 0
N766 4.780 0.950 0 0 0
N768 2.844 0.890 0 0 0
N770 2.966 0.420 0 0 0
N772 2.811 0.690 0 0 0
N774 2.833 0.810 0 0 0
N777 3.597 0.900 0 0 0
N778 4.102 0.840 0 0 0
N779 3.639 0.870 0 0 0
N780 3.652 1.218 0 0 0
N782 2.564 0.950 0 0 0
N783 0.765 4.018 0 0 0
N784 3.334 1.200 0 0 0
N786 2.564 2.119 0 0 0
N787 1.871 2.234 0 0 0
N788 3.411 1.050 0 0 0
N791 2.684 1.452 0 0 0
N793 3.430 0.950 0 0 0
N795 2.202 0.800 0 0 0
N797 2.134 0.900 0 0 0
N798 1.904 1.180 0 0 0
N799 1.980 1.130 0 0 0
N800 1.981 1.794 0 0 0
N801 2.210 1.565 0 0 0
N804 4.629 1.150 0 0 0
N805 3.566 1.313 0 0 0
N806 3.566 1.513 0 0 0
N807 3.022 0.750 0 0 0
N810 2.986 1.050 0 0 0
N811 3.056 0.750 0 0 0
N812 2.663 0.842 0 0 0
N813 2.663 1.127 0 0 0
N814 1.704 1.728 0 0 0
N816 2.087 1.090 0 0 0
N819 2.762 0.760 0 0 0
N820 3.021 1.480 0 0 0
N821 1.706 1.550 0 0 0
N823 3.373 0.920 0 0 0
N825 2.043 1.430 0 0 0
N827 2.099 0.930 0 0 0
N829 2.335 0.860 0 0 0
N832 1.875 0.700 0 0 0
N833 1.963 0.990 0 0 0
N835 1.777 1.284 0 0 0
N837 1.777 1.130 0 0 0
N838 1.554 0.760 0 0 0
N839 1.641 0.770 0 0 0
N841 0.901 0.960 0 0 0
N842 0.784 2.238 0 0 0
N843 1.619 0.970 0 0 0
N845 3.152 0.930 0 0 0
N847 1.578 1.570 0 0 0
N848 2.554 0.700 0 0 0
N851 7.224 1.100 0 0 0
N853 7.232 0.500 0 0 0
N855 6.958 1.700 0 0 0
N857 7.382 1.100 0 0 0
N859 7.536 1.200 0 0 0
N860 7.502 1.200 0 0 0
N861 8.144 1.200 0 0 0
N862 7.878 1.294 0 0 0
N863 8.278 1.230 0 0 0
N865 8.212 0.900 0 0 0
N867 8.067 1.100 0 0 0
N869 8.566 0.900 0 0 0
N871 8.816 0.900 0 0 0
N873 8.463 0.900 0 0 0
N875 10.891 0.900 0 0 0
N877 8.834 1.200 0 0 0
N879 8.408 0.900 0 0 0
N881 8.329 1.010 0 0 0
N883 7.398 1.200 0 0 0
N885 8.363 1.200 0 0 0
N887 7.790 1.897 0 0 0
N890 7.634 1.100 0 0 0
N891 7.506 0.830 0 0 0
N893 7.812 1.100 0 0 0
N894 7.365 1.100 0 0 0
N895 8.259 1.100 0 0 0
N896 10.339 1.140 0 0 0
N897 7.706 1.140 0 0 0
N898 8.048 0.800 0 0 0
N899 8.898 1.500 0 0 0
N901 7.404 1.010 0 0 0
N903 6.986 1.200 0 0 0
N905 7.844 1.200 0 0 0
N907 8.398 1.200 0 0 0
N909 8.882 0.900 0 0 0
N911 8.451 1.010 0 0 0
N913 8.568 0.900 0 0 0
N915 8.586 1.010 0 0 0
N917 7.808 0.850 0 0 0
N919 7.539 0.990 0 0 0
N921 7.861 0.960 0 0 0
N923 7.944 1.478 0 0 0
N925 7.138 1.534 0 0 0
N927 7.379 0.940 0 0 0
N929 7.078 0.900 0 0 0
N931 7.671 1.210 0 0 0
N933 7.557 1.421 0 0 0
N935 6.918 3.025 0 0 0
N937 7.365 1.200 0 0 0
N939 8.982 1.000 0 0 0
N940 8.786 1.000 0 0 0
N941 9.676 0.450 0 0 0
N943 9.730 0.500 0 0 0
N945 9.197 0.950 0 0 0
N946 9.969 0.800 0 0 0
N948 8.528 0.700 0 0 0
N950 9.730 1.450 0 0 0
N952 9.091 1.450 0 0 0
N954 7.945 1.040 0 0 0
N955 7.486 1.040 0 0 0
N957 12.965 1.040 0 0 0
N959 7.589 1.170 0 0 0
N960 6.937 2.099 0 0 0
N963 7.502 1.050 0 0 0
N966 6.488 1.500 0 0 0
N968 7.863 1.200 0 0 0
N970 6.385 1.665 0 0 0
N974 7.776 0.750 0 0 0
N975 7.305 0.870 0 0 0
N978 6.447 2.036 0 0 0
N980 7.362 1.010 0 0 0
N984 7.868 0.800 0 0 0
N986 7.527 0.900 0 0 0
N988 7.597 0.600 0 0 0
N990 8.034 0.900 0 0 0
N992 8.048 0.800 0 0 0
N994 7.583 0.800 0 0 0
N996 8.628 1.030 0 0 0
N998 10.699 0.550 0 0 0
N1000 10.699 0.900 0 0 0
N1002 8.964 0.900 0 0 0
N1004 7.781 0.900 0 0 0
N1006 8.001 0.600 0 0 0
N1008 7.185 1.439 0 0 0
N1010 7.151 1.640 0 0 0
N1012 7.751 0.700 0 0 0
N1014 7.584 0.800 0 0 0
N1017 7.724 0.910 0 0 0
N1019 7.160 0.970 0 0 0
N1021 11.450 0.800 0 0 0
N1023 11.581 0.910 0 0 0
N1025 7.255 0.740 0 0 0
N1027 6.946 0.950 0 0 0
N1029 10.466 1.080 0 0 0
N1031 7.551 1.100 0 0 0
N1033 7.623 1.360 0 0 0
N1035 7.648 0.800 0 0 0
N1037 7.196 1.500 0 0 0
N1039 6.820 0.900 0 0 0
N1041 8.638 0.900 0 0 0
N1043 7.065 0.900 0 0 0
N1045 7.820 0.900 0 0 0
N1047 6.996 1.200 0 0 0
N1049 7.124 1.200 0 0 0
N1051 7.081 1.200 0 0 0
N1053 6.656 0.900 0 0 0
N1055 6.977 1.200 0 0 0
N1057 7.548 1.100 0 0 0
N1059 7.371 1.100 0 0 0
N1061 6.916 0.900 0 0 0
N1062 6.305 1.475 0 0 0
N1063 7.470 0.900 0 0 0
N1065 7.561 0.720 0 0 0
N1067 8.423 0.800 0 0 0
N1069 7.094 0.900 0 0 0
N1071 7.263 1.150 0 0 0
N1073 7.241 1.100 0 0 0
N1075 7.419 0.900 0 0 0
N1077 7.217 1.200 0 0 0
N1079 8.581 1.200 0 0 0
N1081 9.929 0.900 0 0 0
N1083 6.981 1.200 0 0 0
N1085 7.511 1.100 0 0 0
N1087 7.020 1.200 0 0 0
N1088 5.817 1.070 0 0 0
N1090 6.240 0.900 0 0 0
N1092 6.111 0.900 0 0 0
N1093 5.514 1.725 0 0 0
N1094 4.447 2.564 0 0 0
N1096 6.502 0.800 0 0 0
N1099 6.307 0.900 0 0 0
N1101 6.284 0.900 0 0 0
N1103 5.959 1.010 0 0 0
N1105 6.859 0.900 0 0 0
N1106 5.392 2.264 0 0 0
N1107 6.859 0.720 0 0 0
N1108 6.521 0.900 0 0 0
N1109 5.321 1.062 0 0 0
N1110 5.483 0.900 0 0 0
N1112 6.166 1.200 0 0 0
N1114 6.509 0.800 0 0 0
N1116 6.409 0.800 0 0 0
N1118 6.570 1.060 0 0 0
N1120 7.401 1.030 0 0 0
N1122 7.328 0.940 0 0 0
N1123 6.660 1.386 0 0 0
N1125 6.852 1.167 0 0 0
N1127 8.300 0.900 0 0 0
N1129 6.983 0.600 0 0 0
N1130 6.513 0.912 0 0 0
N1132 6.046 0.900 0 0 0
N1134 6.639 0.900 0 0 0
N1135 5.432 1.618 0 0 0
N1137 6.247 0.530 0 0 0
N1138 6.123 0.650 0 0 0
N1140 5.835 0.750 0 0 0
N1142 5.689 1.040 0 0 0
N1144 6.327 1.080 0 0 0
N1146 6.261 0.950 0 0 0
N1148 5.930 1.040 0 0 0
N1150 6.810 0.950 0 0 0
N1152 6.237 1.040 0 0 0
N1154 6.732 1.040 0 0 0
N1156 5.424 1.200 0 0 0
N1158 6.397 3.464 0 0 0
N1159 5.336 1.157 0 0 0
N1160 6.118 0.850 0 0 0
N1162 6.226 0.750 0 0 0
N1164 7.052 0.540 0 0 0
N1166 6.028 0.600 0 0 0
N1167 5.835 1.300 0 0 0
N1168 5.537 3.370 0 0 0
N1170 6.603 0.900 0 0 0
N1172 6.543 0.700 0 0 0
N1174 6.881 1.206 0 0 0
N1176 10.786 2.564 0 0 0
N1177 9.369 1.190 0 0 0
N1179 10.153 1.020 0 0 0
N1180 8.401 2.583 0 0 0
N1181 9.321 1.130 0 0 0
N1183 10.956 1.220 0 0 0
N1184 10.222 1.490 0 0 0
N1185 10.043 1.490 0 0 0
N1187 9.802 0.890 0 0 0
N1189 9.032 1.030 0 0 0
N1191 9.384 0.690 0 0 0
N1193 9.714 1.260 0 0 0
N1195 9.700 0.630 0 0 0
N1197 9.630 0.700 0 0 0
N1199 9.836 0.890 0 0 0
N1201 10.422 1.190 0 0 0
N1202 8.092 3.584 0 0 0
N1203 12.080 1.570 0 0 0
N1204 8.161 2.931 0 0 0
N1205 8.934 0.680 0 0 0
N1208 9.318 0.943 0 0 0
N1209 9.706 1.230 0 0 0
N1211 9.380 1.160 0 0 0
N1213 11.611 1.080 0 0 0
N1214 9.417 2.944 0 0 0
N1218 9.878 0.910 0 0 0
N1219 8.813 0.840 0 0 0
N1220 8.612 3.385 0 0 0
N1222 10.469 1.100 0 0 0
N1224 10.104 0.730 0 0 0
N1225 9.569 1.460 0 0 0
N1227 3.483 3.503 0 0 0
N1229 4.572 1.040 0 0 0
N1230 7.012 0.900 0 0 0
N1232 8.643 1.010 0 0 0
N1233 8.035 1.508 0 0 0
N1234 5.976 1.010 0 0 0
N1236 7.309 1.150 0 0 0
N1237 5.261 3.257 0 0 0
N1238 7.327 1.450 0 0 0
N1239 7.170 1.200 0 0 0
N1241 9.271 0.900 0 0 0
N1242 9.271 1.200 0 0 0
N1244 10.399 0.900 0 0 0
N1245 8.735 2.431 0 0 0
N1246 8.393 0.900 0 0 0
N1248 9.399 1.200 0 0 0
N1251 9.399 1.200 0 0 0
N1253 9.104 1.080 0 0 0
N1255 7.572 1.450 0 0 0
N1257 7.199 1.688 0 0 0
N1259 7.523 1.200 0 0 0
N1260 9.672 0.600 0 0 0
N1262 7.321 1.200 0 0 0
N1264 3.932 1.200 0 0 0
N1265 3.650 2.782 0 0 0
N1266 3.932 3.400 0 0 0
N1268 7.371 0.900 0 0 0
N1270 7.469 0.900 0 0 0
N1272 7.769 0.600 0 0 0
N1274 8.254 0.400 0 0 0
N1276 7.396 0.400 0 0 0
N1278 7.945 1.100 0 0 0
N1280 7.870 0.900 0 0 0
N1282 7.806 0.600 0 0 0
N1284 6.607 1.100 0 0 0
N1286 8.002 0.800 0 0 0
N1288 4.920 4.270 0 0 0
N1290 4.920 0.900 0 0 0
N1291 3.434 3.656 0 0 0
N1292 7.513 0.500 0 0 0
N1293 7.320 1.344 0 0 0
N1295 6.098 1.350 0 0 0
N1297 7.346 1.070 0 0 0
N1299 7.995 1.200 0 0 0
N1300 7.051 2.204 0 0 0
N1302 6.919 1.070 0 0 0
N1304 7.277 1.100 0 0 0
N1306 6.116 1.500 0 0 0
N1308 6.503 1.230 0 0 0
N1310 8.535 0.900 0 0 0
N1312 8.185 0.900 0 0 0
N1314 7.116 0.900 0 0 0
N1316 6.824 0.900 0 0 0
N1318 8.376 0.900 0 0 0
N1320 7.388 0.700 0 0 0
N1321 7.257 1.200 0 0 0
N1322 7.227 1.250 0 0 0
N1324 12.102 0.900 0 0 0
N1326 11.803 1.090 0 0 0
N1328 13.715 0.900 0 0 0
N1330 14.102 0.870 0 0 0
N1332 12.856 0.950 0 0 0
N1334 12.761 0.940 0 0 0
N1336 14.326 0.680 0 0 0
N1337 13.390 1.140 0 0 0
N1338 12.509 1.000 0 0 0
N1340 12.652 1.200 0 0 0
N1342 12.764 1.150 0 0 0
N1344 12.555 0.930 0 0 0
N1345 11.645 1.144 0 0 0
N1346 12.848 1.050 0 0 0
N1347 12.265 1.783 0 0 0
N1349 12.927 1.050 0 0 0
N1350 12.999 0.740 0 0 0
N1351 11.557 1.631 0 0 0
N1352 12.180 1.060 0 0 0
N1353 12.688 1.180 0 0 0
N1355 11.931 1.120 0 0 0
N1357 11.834 0.960 0 0 0
N1359 11.835 0.960 0 0 0
N1361 11.678 0.990 0 0 0
N1363 12.257 0.880 0 0 0
N1364 11.682 1.150 0 0 0
N1365 12.322 1.040 0 0 0
N1367 11.411 1.220 0 0 0
N1369 12.113 0.920 0 0 0
N1370 11.909 0.900 0 0 0
N1372 11.800 0.930 0 0 0
N1374 11.520 1.048 0 0 0
N1377 12.410 1.180 0 0 0
N1378 12.366 0.970 0 0 0
N1380 12.137 0.950 0 0 0
N1383 12.376 1.050 0 0 0
N1384 11.905 1.226 0 0 0
N1385 11.905 2.590 0 0 0
N1387 11.777 1.200 0 0 0
N1389 11.858 1.200 0 0 0
N1391 12.151 1.571 0 0 0
N1392 11.682 1.725 0 0 0
N1393 12.225 0.970 0 0 0
N1395 11.714 1.200 0 0 0
N1396 11.672 1.200 0 0 0
N1398 12.432 1.200 0 0 0
N1400 11.660 1.570 0 0 0
N1402 11.998 0.950 0 0 0
N1404 11.558 2.493 0 0 0
N1406 11.257 1.271 0 0 0
N1407 11.795 0.900 0 0 0
N1409 11.471 1.050 0 0 0
N1410 11.312 1.382 0 0 0
N1412 12.370 0.740 0 0 0
N1414 14.318 0.740 0 0 0
N1415 12.449 0.820 0 0 0
N1417 11.866 0.870 0 0 0
N1419 11.971 0.850 0 0 0
N1421 11.885 0.900 0 0 0
N1423 11.617 0.960 0 0 0
N1425 11.899 0.890 0 0 0
N1426 11.479 1.340 0 0 0
N1428 11.669 0.830 0 0 0
N1431 11.706 0.900 0 0 0
N1433 11.165 1.200 0 0 0
N1435 10.729 1.200 0 0 0
N1436 10.365 1.714 0 0 0
N1437 11.591 0.740 0 0 0
N1439 11.322 0.590 0 0 0
N1440 11.205 0.810 0 0 0
N1442 12.157 1.200 0 0 0
N1444 12.973 0.590 0 0 0
N1446 12.181 0.900 0 0 0
N1448 12.855 0.780 0 0 0
N1450 12.573 0.630 0 0 0
N1452 12.614 1.445 0 0 0
N1453 12.606 1.550 0 0 0
N1455 11.662 0.990 0 0 0
N1457 13.838 0.920 0 0 0
N1458 12.352 1.060 0 0 0
N1461 11.885 0.910 0 0 0
N1462 11.660 0.928 0 0 0
N1463 11.385 1.050 0 0 0
N1464 11.262 1.332 0 0 0
N1467 12.533 1.625 0 0 0
N1468 11.791 1.200 0 0 0
N1471 11.535 1.150 0 0 0
N1473 10.280 1.220 0 0 0
N1474 9.650 2.420 0 0 0
N1475 10.867 1.790 0 0 0
N1478 11.074 1.652 0 0 0
N1480 11.383 1.320 0 0 0
N1482 11.199 0.850 0 0 0
N1483 12.672 0.860 0 0 0
N1485 13.328 1.130 0 0 0
N1486 12.413 1.695 0 0 0
N1487 13.328 1.120 0 0 0
N1489 12.129 0.800 0 0 0
N1491 11.572 1.020 0 0 0
N1492 11.372 1.423 0 0 0
N1493 11.572 1.403 0 0 0
N1494 11.825 1.290 0 0 0
N1495 12.203 1.170 0 0 0
N1497 11.936 1.120 0 0 0
N1499 12.823 0.720 0 0 0
N1501 12.048 0.650 0 0 0
N1502 11.956 0.780 0 0 0
N1503 12.284 0.870 0 0 0
N1505 11.716 0.730 0 0 0
N1506 11.444 1.293 0 0 0
N1507 12.105 0.780 0 0 0
N1508 13.582 0.970 0 0 0
N1509 12.355 1.486 0 0 0
N1510 11.741 1.170 0 0 0
N1514 11.690 0.820 0 0 0
N1516 11.744 0.820 0 0 0
N1518 13.883 0.570 0 0 0
N1520 12.794 0.760 0 0 0
N1522 14.925 0.940 0 0 0
N1524 14.990 0.690 0 0 0
N1526 12.286 0.450 0 0 0
N1527 11.883 0.610 0 0 0
N1528 11.740 0.769 0 0 0
N1530 11.848 0.620 0 0 0
N1531 11.503 1.365 0 0 0
N1533 12.766 1.090 0 0 0
N1535 11.593 1.560 0 0 0
N1537 13.172 0.610 0 0 0
N1539 13.172 0.960 0 0 0
N1541 12.062 0.930 0 0 0
N1544 12.185 0.910 0 0 0
N1546 12.953 1.210 0 0 0
N1548 12.015 1.080 0 0 0
N1550 13.053 1.000 0 0 0
N1552 13.238 0.610 0 0 0
N1554 13.370 0.960 0 0 0
N1556 12.756 0.970 0 0 0
N1558 13.555 0.940 0 0 0
N1560 12.401 0.800 0 0 0
N1562 13.338 0.460 0 0 0
N1563 12.753 1.635 0 0 0
N1564 13.054 1.050 0 0 0
N1565 12.516 0.870 0 0 0
N1567 12.643 0.720 0 0 0
N1569 13.184 1.080 0 0 0
N1572 13.137 0.500 0 0 0
N1574 12.799 0.880 0 0 0
N1576 12.968 1.000 0 0 0
N1578 13.321 0.760 0 0 0
N1579 12.689 1.802 0 0 0
N1582 12.987 0.910 0 0 0
N1584 12.716 0.960 0 0 0
N1586 13.472 1.020 0 0 0
N1588 13.174 1.050 0 0 0
N1590 12.311 3.119 0 0 0
N1592 13.174 0.280 0 0 0
N1593 12.881 1.183 0 0 0
N1595 10.048 1.922 0 0 0
N1598 10.805 1.200 0 0 0
N1599 11.619 0.550 0 0 0
N1601 11.422 0.400 0 0 0
N1603 11.165 0.600 0 0 0
N1605 11.519 0.950 0 0 0
N1607 11.899 1.050 0 0 0
N1609 10.980 1.050 0 0 0
N1611 11.685 1.150 0 0 0
N1613 11.279 1.050 0 0 0
N1615 11.604 0.600 0 0 0
N1617 11.415 0.950 0 0 0
N1618 11.261 1.150 0 0 0
N1620 11.468 1.150 0 0 0
N1621 10.955 1.843 0 0 0
N1623 10.056 1.939 0 0 0
N1624 9.903 0.950 0 0 0
N1626 10.560 1.635 0 0 0
N1628 11.286 0.630 0 0 0
N1631 12.759 0.850 0 0 0
N1632 11.823 1.450 0 0 0
N1634 10.806 0.850 0 0 0
N1635 9.915 1.050 0 0 0
N1637 10.673 1.580 0 0 0
N1639 9.643 1.920 0 0 0
N1641 9.911 0.850 0 0 0
N1642 7.028 3.583 0 0 0
N1643 9.011 0.740 0 0 0
N1645 9.811 0.760 0 0 0
N1647 9.916 0.700 0 0 0
N1648 11.242 0.910 0 0 0
N1650 11.251 1.050 0 0 0
N1652 10.570 0.590 0 0 0
N1654 12.534 0.640 0 0 0
N1656 8.948 1.180 0 0 0
N1658 9.926 0.670 0 0 0
N1660 6.342 1.110 0 0 0
N1662 7.449 1.400 0 0 0
N1664 6.650 0.720 0 0 0
N1666 7.147 0.640 0 0 0
N1668 12.192 0.620 0 0 0
N1670 12.214 0.660 0 0 0
N1673 11.533 0.530 0 0 0
N1675 10.838 1.650 0 0 0
N1677 10.678 1.440 0 0 0
N1678 10.640 1.440 0 0 0
N1679 10.368 1.210 0 0 0
N1680 10.983 1.350 0 0 0
N1682 11.115 1.080 0 0 0
N1684 12.853 0.480 0 0 0
N1685 12.848 0.675 0 0 0
N1687 12.752 0.820 0 0 0
N1689 10.515 1.020 0 0 0
N1691 10.292 0.800 0 0 0
N1692 10.045 1.283 0 0 0
N1694 12.474 0.690 0 0 0
N1696 12.524 0.600 0 0 0
N1698 11.416 0.690 0 0 0
N1700 12.004 0.620 0 0 0
N1701 10.326 0.670 0 0 0
N1702 10.515 0.680 0 0 0
N1704 12.605 0.590 0 0 0
N1706 12.446 0.750 0 0 0
N1708 11.877 0.510 0 0 0
N1710 12.308 0.820 0 0 0
N1712 12.598 0.890 0 0 0
N1713 12.343 1.175 0 0 0
N1715 11.213 2.020 0 0 0
N1716 12.507 0.890 0 0 0
N1718 11.213 2.715 0 0 0
N1719 12.605 1.673 0 0 0
N1721 13.324 0.640 0 0 0
N1722 12.573 1.321 0 0 0
N1724 12.474 0.740 0 0 0
N1726 12.802 0.670 0 0 0
N1727 12.725 0.787 0 0 0
N1729 13.234 0.840 0 0 0
N1731 13.396 0.900 0 0 0
N1733 10.101 0.950 0 0 0
N1735 8.703 0.540 0 0 0
N1736 8.564 0.560 0 0 0
N1738 8.475 0.570 0 0 0
N1740 8.455 0.570 0 0 0
N1742 8.767 0.560 0 0 0
N1744 8.952 0.520 0 0 0
N1746 8.749 0.560 0 0 0
N1748 6.719 0.610 0 0 0
N1750 6.393 0.760 0 0 0
N1752 6.737 0.630 0 0 0
N1754 8.403 0.610 0 0 0
N1756 7.071 0.460 0 0 0
N1757 12.627 0.890 0 0 0
N1759 15.537 0.800 0 0 0
N1761 15.522 0.600 0 0 0
N1762 15.018 1.704 0 0 0
N1764 17.466 0.650 0 0 0
N1766 14.991 0.600 0 0 0
N1768 16.071 0.600 0 0 0
N1770 15.864 0.600 0 0 0
N1772 14.826 0.650 0 0 0
N1774 15.984 0.500 0 0 0
N1776 14.536 0.600 0 0 0
N1778 14.330 0.550 0 0 0
N1780 13.178 0.700 0 0 0
N1782 13.401 0.950 0 0 0
N1784 15.706 0.800 0 0 0
N1786 15.410 0.850 0 0 0
N1788 14.315 0.750 0 0 0
N1790 14.215 0.750 0 0 0
N1792 13.996 0.650 0 0 0
N1794 14.150 0.500 0 0 0
N1796 14.362 1.500 0 0 0
N1798 7.972 0.980 0 0 0
N1800 7.084 1.733 0 0 0
N1802 7.079 2.215 0 0 0
N1804 7.200 3.589 0 0 0
N1805 7.316 0.710 0 0 0
N1806 6.054 2.228 0 0 0
N1807 6.917 1.774 0 0 0
N1808 8.117 1.386 0 0 0
N1809 7.971 1.899 0 0 0
N1811 8.587 1.223 0 0 0
N1813 10.172 0.690 0 0 0
N1814 7.372 0.510 0 0 0
N1816 9.452 1.010 0 0 0
N1817 8.672 1.400 0 0 0
N1819 8.782 0.710 0 0 0
N1821 8.775 0.680 0 0 0
N1823 8.745 1.060 0 0 0
N1825 8.333 0.840 0 0 0
N1827 8.107 0.970 0 0 0
N1828 8.107 1.981 0 0 0
N1830 12.195 1.350 0 0 0
N1832 12.045 0.830 0 0 0
N1834 12.302 0.650 0 0 0
N1836 11.831 0.900 0 0 0
N1838 11.776 0.820 0 0 0
N1839 11.229 1.492 0 0 0
N1840 12.587 0.760 0 0 0
N1842 12.535 0.850 0 0 0
N1844 12.651 0.670 0 0 0
N1846 12.159 0.850 0 0 0
N1848 12.757 0.910 0 0 0
N1850 12.494 0.840 0 0 0
N1851 11.485 1.594 0 0 0
N1852 12.310 0.750 0 0 0
N1853 10.644 0.998 0 0 0
N1854 11.800 1.350 0 0 0
N1855 9.535 3.441 0 0 0
N1856 12.863 0.410 0 0 0
N1858 9.730 1.452 0 0 0
N1859 11.302 0.600 0 0 0
N1860 10.784 1.801 0 0 0
N1861 10.397 0.770 0 0 0
N1863 10.910 0.670 0 0 0
N1865 10.984 0.780 0 0 0
N1866 9.017 2.602 0 0 0
N1867 10.604 0.690 0 0 0
N1869 11.714 0.680 0 0 0
N1871 11.776 0.650 0 0 0
N1872 10.258 2.178 0 0 0
N1874 13.275 0.600 0 0 0
N1876 13.354 1.000 0 0 0
N1878 11.736 0.770 0 0 0
N1880 12.728 0.640 0 0 0
N1882 12.818 0.840 0 0 0
N1884 12.239 0.650 0 0 0
N1886 10.594 0.790 0 0 0
N1888 12.196 0.910 0 0 0
N1891 10.674 1.240 0 0 0
N1893 10.708 0.820 0 0 0
N1895 9.233 0.590 0 0 0
N1897 9.679 0.640 0 0 0
N1899 10.530 0.930 0 0 0
N1901 8.045 1.350 0 0 0
N1903 8.100 0.900 0 0 0
N1905 9.286 0.700 0 0 0
N1907 8.899 0.680 0 0 0
N1909 8.675 0.900 0 0 0
N1910 8.694 1.132 0 0 0
N1911 9.036 0.610 0 0 0
N1913 9.190 1.058 0 0 0
N1915 9.068 1.010 0 0 0
N1916 9.019 1.049 0 0 0
N1917 9.808 0.540 0 0 0
N1919 8.198 1.821 0 0 0
N1920 8.973 0.910 0 0 0
N1922 8.835 0.640 0 0 0
N1923 8.786 0.810 0 0 0
N1925 8.985 0.570 0 0 0
N1927 7.857 0.740 0 0 0
N1929 7.539 0.700 0 0 0
N1930 6.666 1.400 0 0 0
N1931 8.039 0.550 0 0 0
N1933 11.760 1.200 0 0 0
N1935 8.837 0.670 0 0 0
N1937 9.140 0.770 0 0 0
N1939 7.657 1.450 0 0 0
N1941 8.749 0.660 0 0 0
N1943 9.144 0.890 0 0 0
N1945 8.261 0.890 0 0 0
N1947 8.731 0.710 0 0 0
N1948 7.925 0.710 0 0 0
N1949 7.547 1.234 0 0 0
N1951 8.590 0.770 0 0 0
N1952 8.191 0.770 0 0 0
N1954 6.917 1.398 0 0 0
N1955 6.423 1.836 0 0 0
N1956 8.370 0.970 0 0 0
N1957 10.100 0.400 0 0 0
N1958 9.597 1.250 0 0 0
N1959 9.733 0.670 0 0 0
N1960 12.494 0.840 0 0 0
N1961 10.821 1.008 0 0 0
N1962 9.552 2.077 0 0 0
N1963 9.869 0.830 0 0 0
N1964 9.209 0.830 0 0 0
N1965 10.809 0.550 0 0 0
N1966 10.681 0.590 0 0 0
N1967 9.659 0.912 0 0 0
N1969 10.940 0.670 0 0 0
N1970 10.301 0.670 0 0 0
N1971 10.397 0.600 0 0 0
N1973 11.544 0.570 0 0 0
N1974 10.799 1.973 0 0 0
N1975 12.160 0.340 0 0 0
N1977 12.129 0.510 0 0 0
N1980 10.679 0.780 0 0 0
N1982 10.435 0.490 0 0 0
N1983 9.640 0.490 0 0 0
N1984 10.230 0.470 0 0 0
N1985 10.686 0.570 0 0 0
N1987 10.694 0.730 0 0 0
N1989 9.945 0.470 0 0 0
N1990 9.793 1.714 0 0 0
N1992 11.917 0.530 0 0 0
N1994 12.835 0.790 0 0 0
N1997 12.914 0.790 0 0 0
N1999 11.469 0.710 0 0 0
N2001 9.602 0.680 0 0 0
N2004 9.685 1.080 0 0 0
N2005 10.063 0.610 0 0 0
N2007 9.475 0.670 0 0 0
N2008 9.306 0.725 0 0 0
N2010 9.493 1.110 0 0 0
N2011 10.123 0.540 0 0 0
N2012 9.357 0.660 0 0 0
N2013 8.073 0.832 0 0 0
N2015 9.402 0.430 0 0 0
N2017 8.818 0.830 0 0 0
N2019 9.735 0.880 0 0 0
N2021 9.379 0.500 0 0 0
N2022 8.545 0.760 0 0 0
N2023 7.706 0.971 0 0 0
N2024 8.448 0.620 0 0 0
N2026 8.858 0.910 0 0 0
N2028 8.669 0.720 0 0 0
N2030 8.408 0.640 0 0 0
N2032 8.366 0.600 0 0 0
N2033 7.921 0.630 0 0 0
N2035 8.058 0.520 0 0 0
N2037 8.492 0.650 0 0 0
N2039 8.073 0.740 0 0 0
N2041 8.086 0.990 0 0 0
N2043 8.523 0.600 0 0 0
N2044 8.242 0.810 0 0 0
N2045 8.321 1.064 0 0 0
N2047 8.131 1.076 0 0 0
N2049 7.946 0.790 0 0 0
N2051 7.605 0.770 0 0 0
N2054 8.204 0.540 0 0 0
N2055 7.711 0.730 0 0 0
N2057 7.999 0.750 0 0 0
N2058 7.994 1.990 0 0 0
N2060 7.613 0.670 0 0 0
N2062 8.115 0.440 0 0 0
N2064 8.359 0.420 0 0 0
N2066 7.732 0.710 0 0 0
N2069 7.394 0.660 0 0 0
N2071 7.376 0.580 0 0 0
N2073 6.429 1.070 0 0 0
N2075 7.472 1.260 0 0 0
N2077 7.763 0.820 0 0 0
N2078 6.367 0.820 0 0 0
N2081 8.979 2.080 0 0 0
N2082 6.868 2.420 0 0 0
N2084 6.763 0.540 0 0 0
N2086 6.685 0.800 0 0 0
N2088 7.739 0.590 0 0 0
N2090 7.109 0.790 0 0 0
N2091 6.424 0.823 0 0 0
N2092 6.516 0.780 0 0 0
N2094 9.788 0.810 0 0 0
N2095 6.877 0.810 0 0 0
N2096 8.946 0.670 0 0 0
N2097 8.577 0.670 0 0 0
N2099 8.717 0.860 0 0 0
N2100 8.672 1.080 0 0 0
N2101 8.460 1.271 0 0 0
N2103 9.183 0.560 0 0 0
N2104 8.531 0.610 0 0 0
N2106 8.906 0.630 0 0 0
N2107 8.429 1.069 0 0 0
N2109 9.011 0.640 0 0 0
N2111 8.713 0.760 0 0 0
N2113 7.891 0.660 0 0 0
N2115 7.303 0.960 0 0 0
N2117 7.303 1.050 0 0 0
N2118 7.132 1.225 0 0 0
N2119 7.349 0.840 0 0 0
N2120 7.199 3.042 0 0 0
N2122 7.814 0.720 0 0 0
N2124 7.698 0.720 0 0 0
N2125 7.110 1.837 0 0 0
N2126 7.821 1.165 0 0 0
N2129 7.021 0.837 0 0 0
N2130 8.556 4.011 0 0 0
N2131 7.452 2.544 0 0 0
N2132 7.452 5.025 0 0 0
N2135 8.266 2.150 0 0 0
N2139 11.673 0.800 0 0 0
N2141 9.819 0.460 0 0 0
N2143 9.354 0.390 0 0 0
N2145 9.633 0.530 0 0 0
N2147 11.518 0.610 0 0 0
N2150 10.076 3.750 0 0 0
N2152 10.006 0.650 0 0 0
N2154 9.155 0.930 0 0 0
N2156 9.262 0.760 0 0 0
N2158 10.286 0.620 0 0 0
N2161 8.410 0.900 0 0 0
N2162 7.985 0.949 0 0 0
N2163 7.543 0.770 0 0 0
N2168 11.604 0.780 0 0 0
N2170 12.058 0.900 0 0 0
N2171 10.251 1.680 0 0 0
N2172 10.236 1.130 0 0 0
N2174 10.586 0.800 0 0 0
N2176 10.797 0.800 0 0 0
N2178 10.372 0.650 0 0 0
N2179 10.282 0.840 0 0 0
N2181 10.717 0.650 0 0 0
N2183 10.736 0.600 0 0 0
N2185 10.596 0.850 0 0 0
N2187 10.406 0.850 0 0 0
N2189 10.392 0.650 0 0 0
N2191 10.486 0.730 0 0 0
N2193 10.620 0.600 0 0 0
N2195 10.052 0.720 0 0 0
N2198 9.984 0.850 0 0 0
N2199 10.260 0.770 0 0 0
N2201 10.924 0.800 0 0 0
N2203 10.406 0.700 0 0 0
N2205 10.215 0.950 0 0 0
N2207 11.906 1.450 0 0 0
N2208 10.172 1.500 0 0 0
N2210 12.011 1.150 0 0 0
N2211 11.014 1.697 0 0 0
N2213 12.329 0.800 0 0 0
N2215 12.136 1.250 0 0 0
N2217 11.983 0.750 0 0 0
N2220 12.120 0.950 0 0 0
N2221 12.309 0.600 0 0 0
N2222 11.904 1.065 0 0 0
N2223 12.340 0.660 0 0 0
N2224 12.186 1.200 0 0 0
N2225 12.161 1.200 0 0 0
N2226 10.976 0.950 0 0 0
N2227 11.607 0.550 0 0 0
N2229 11.817 0.600 0 0 0
N2231 11.898 0.800 0 0 0
N2232 10.295 0.850 0 0 0
N2234 11.596 1.100 0 0 0
N2235 11.797 0.650 0 0 0
N2236 9.979 1.044 0 0 0
N2237 11.062 0.880 0 0 0
N2239 10.921 0.650 0 0 0
N2241 10.716 0.770 0 0 0
N2243 10.546 0.520 0 0 0
N2245 10.422 0.300 0 0 0
N2248 8.534 0.600 0 0 0
N2250 8.658 0.950 0 0 0
N2251 8.320 1.145 0 0 0
N2253 8.592 0.750 0 0 0
N2254 8.705 0.400 0 0 0
N2256 8.505 0.750 0 0 0
N2259 8.845 0.950 0 0 0
N2260 8.260 1.312 0 0 0
N2261 8.551 0.650 0 0 0
N2262 8.460 0.950 0 0 0
N2264 8.913 1.500 0 0 0
N2266 8.488 2.764 0 0 0
N2268 9.935 1.050 0 0 0
N2270 9.497 0.900 0 0 0
N2272 9.254 0.750 0 0 0
N2274 8.642 0.750 0 0 0
N2276 10.434 0.850 0 0 0
N2278 9.571 0.700 0 0 0
N2280 8.864 0.600 0 0 0
N2281 8.410 0.900 0 0 0
N2282 8.232 0.750 0 0 0
N2284 8.965 0.700 0 0 0
N2285 7.934 1.548 0 0 0
N2287 8.498 0.900 0 0 0
N2289 9.250 0.750 0 0 0
N2292 9.377 0.700 0 0 0
N2294 10.008 0.750 0 0 0
N2296 9.904 0.750 0 0 0
N2298 10.462 0.750 0 0 0
N2301 10.252 0.750 0 0 0
N2303 10.149 0.800 0 0 0
N2304 10.039 1.160 0 0 0
N2305 11.158 1.050 0 0 0
N2306 10.444 0.700 0 0 0
N2308 9.943 0.680 0 0 0
N2310 9.254 0.700 0 0 0
N2312 7.388 0.750 0 0 0
N2314 8.367 0.900 0 0 0
N2316 8.479 0.650 0 0 0
N2318 9.114 0.600 0 0 0
N2320 8.066 0.900 0 0 0
N2322 8.082 4.274 0 0 0
N2324 6.876 5.595 0 0 0
N2326 8.950 0.900 0 0 0
N2327 8.403 1.357 0 0 0
N2328 8.527 0.900 0 0 0
N2330 10.523 0.850 0 0 0
N2335 5.831 1.032 0 0 0
N2337 6.047 0.650 0 0 0
N2339 6.277 0.850 0 0 0
N2341 5.994 0.800 0 0 0
N2343 6.309 0.650 0 0 0
N2345 5.993 0.650 0 0 0
N2346 5.251 1.225 0 0 0
N2347 5.791 0.950 0 0 0
N2348 5.304 1.350 0 0 0
N2350 6.587 0.750 0 0 0
N2352 6.188 0.900 0 0 0
N2354 6.873 0.650 0 0 0
N2356 6.539 0.800 0 0 0
N2358 6.070 0.850 0 0 0
N2360 9.364 0.850 0 0 0
N2361 8.213 0.800 0 0 0
N2362 8.479 1.200 0 0 0
N2364 5.633 0.650 0 0 0
N2365 5.481 0.981 0 0 0
N2366 6.519 0.750 0 0 0
N2367 5.577 0.800 0 0 0
N2368 5.270 0.950 0 0 0
N2369 5.055 0.981 0 0 0
N2372 5.321 0.860 0 0 0
N2373 5.482 0.900 0 0 0
N2375 5.629 0.850 0 0 0
N2377 5.509 0.750 0 0 0
N2379 5.449 0.800 0 0 0
N2380 4.928 1.123 0 0 0
N2381 4.893 0.750 0 0 0
N2386 4.993 0.700 0 0 0
N2387 5.810 0.750 0 0 0
N2388 4.403 1.229 0 0 0
N2389 4.817 0.750 0 0 0
N2392 4.912 0.800 0 0 0
N2393 4.419 1.193 0 0 0
N2394 3.770 0.650 0 0 0
N2397 4.166 0.950 0 0 0
N2399 5.023 0.750 0 0 0
N2401 5.173 0.750 0 0 0
N2403 5.952 0.800 0 0 0
N2404 5.003 0.800 0 0 0
N2406 4.990 0.700 0 0 0
N2408 5.002 0.800 0 0 0
N2409 4.945 0.804 0 0 0
N2410 4.976 0.800 0 0 0
N2411 4.518 0.650 0 0 0
N2413 4.868 0.750 0 0 0
N2414 4.500 1.455 0 0 0
N2415 4.057 1.220 0 0 0
N2417 5.304 0.750 0 0 0
N2418 4.511 0.962 0 0 0
N2419 4.878 1.462 0 0 0
N2421 5.046 0.350 0 0 0
N2422 4.999 0.650 0 0 0
N2423 5.565 0.850 0 0 0
N2425 5.219 0.750 0 0 0
N2427 5.341 1.833 0 0 0
N2429 6.074 0.850 0 0 0
N2431 5.627 0.850 0 0 0
N2432 4.745 0.900 0 0 0
N2434 5.432 0.860 0 0 0
N2435 5.012 1.022 0 0 0
N2436 5.163 0.969 0 0 0
N2437 5.193 0.900 0 0 0
N2440 6.029 0.750 0 0 0
N2442 3.795 2.371 0 0 0
N2444 4.778 0.751 0 0 0
N2446 4.613 0.650 0 0 0
N2449 5.034 0.700 0 0 0
N2451 5.081 0.950 0 0 0
N2453 4.646 0.650 0 0 0
N2455 5.082 0.900 0 0 0
N2457 4.250 0.800 0 0 0
N2459 4.880 0.800 0 0 0
N2460 4.250 0.988 0 0 0
N2461 5.081 0.700 0 0 0
N2463 4.470 0.700 0 0 0
N2465 4.384 1.137 0 0 0
N2467 4.900 0.700 0 0 0
N2469 4.402 0.800 0 0 0
N2470 4.271 0.850 0 0 0
N2471 4.156 1.400 0 0 0
N2473 4.156 0.955 0 0 0
N2474 3.385 1.200 0 0 0
N2475 3.837 1.554 0 0 0
N2476 4.681 0.900 0 0 0
N2478 4.433 0.750 0 0 0
N2480 4.134 0.800 0 0 0
N2482 4.237 0.500 0 0 0
N2484 5.082 0.650 0 0 0
N2486 4.015 0.950 0 0 0
N2488 3.665 1.200 0 0 0
N2490 3.651 0.650 0 0 0
N2492 3.821 0.950 0 0 0
N2494 3.945 0.800 0 0 0
N2496 5.593 0.700 0 0 0
N2498 5.352 0.800 0 0 0
N2500 4.366 0.650 0 0 0
N2502 4.155 0.729 0 0 0
N2504 4.219 0.650 0 0 0
N2505 3.770 1.430 0 0 0
N2506 4.481 0.650 0 0 0
N2508 3.715 0.650 0 0 0
N2510 4.311 0.750 0 0 0
N2512 4.591 0.650 0 0 0
N2514 4.436 0.650 0 0 0
N2516 4.202 0.750 0 0 0
N2518 3.568 1.189 0 0 0
N2519 3.497 1.162 0 0 0
N2521 4.142 0.650 0 0 0
N2523 4.014 0.950 0 0 0
N2525 4.360 0.850 0 0 0
N2527 4.511 0.800 0 0 0
N2528 3.823 1.287 0 0 0
N2529 3.749 0.780 0 0 0
N2531 3.855 0.800 0 0 0
N2532 3.600 1.319 0 0 0
N2533 3.814 0.750 0 0 0
N2534 3.747 0.867 0 0 0
N2535 3.677 0.800 0 0 0
N2536 3.372 1.350 0 0 0
N2538 3.736 0.700 0 0 0
N2541 3.342 1.235 0 0 0
N2543 3.753 0.900 0 0 0
N2544 3.567 0.936 0 0 0
N2546 4.014 0.750 0 0 0
N2548 3.601 0.950 0 0 0
N2550 3.433 0.850 0 0 0
N2551 2.915 0.900 0 0 0
N2553 3.384 0.750 0 0 0
N2554 2.649 2.331 0 0 0
N2555 1.641 2.764 0 0 0
N2557 3.762 1.050 0 0 0
N2559 2.868 1.150 0 0 0
N2561 3.114 0.750 0 0 0
N2562 2.618 1.705 0 0 0
N2566 4.773 1.924 0 0 0
N2570 5.243 0.750 0 0 0
N2572 5.121 0.850 0 0 0
N2573 4.723 0.900 0 0 0
N2575 4.878 0.800 0 0 0
N2576 4.749 1.641 0 0 0
N2578 5.421 1.050 0 0 0
N2579 5.444 0.650 0 0 0
N2580 3.886 1.312 0 0 0
N2581 4.389 0.650 0 0 0
N2582 5.344 0.750 0 0 0
N2583 4.361 0.800 0 0 0
N2584 4.027 0.750 0 0 0
N2589 12.763 0.820 0 0 0
N2591 12.114 0.770 0 0 0
N2593 12.782 0.660 0 0 0
N2595 11.731 0.630 0 0 0
N2597 12.597 0.720 0 0 0
N2599 12.437 1.006 0 0 0
N2601 12.763 0.990 0 0 0
N2602 10.815 0.710 0 0 0
N2603 14.503 0.720 0 0 0
N2605 14.815 0.580 0 0 0
N2607 15.126 0.990 0 0 0
N2609 14.280 0.730 0 0 0
N2610 13.391 1.757 0 0 0
N2611 14.879 0.530 0 0 0
N2613 16.741 0.560 0 0 0
N2615 15.771 0.570 0 0 0
N2617 15.186 0.880 0 0 0
N2619 15.021 0.670 0 0 0
N2621 14.566 0.670 0 0 0
N2622 15.668 0.870 0 0 0
N2624 15.206 0.550 0 0 0
N2626 14.450 1.200 0 0 0
N2628 15.204 0.700 0 0 0
N2630 14.992 0.580 0 0 0
N2631 14.259 0.597 0 0 0
N2632 16.109 0.910 0 0 0
N2634 15.760 0.710 0 0 0
N2636 15.383 0.520 0 0 0
N2638 15.271 0.840 0 0 0
N2640 14.874 0.950 0 0 0
N2642 14.379 0.740 0 0 0
N2644 14.059 0.990 0 0 0
N2646 15.134 0.610 0 0 0
N2648 14.504 0.520 0 0 0
N2651 14.411 0.930 0 0 0
N2652 15.119 0.750 0 0 0
N2654 13.748 0.650 0 0 0
N2656 13.757 0.720 0 0 0
N2658 15.083 0.950 0 0 0
N2660 14.349 0.820 0 0 0
N2662 15.232 1.380 0 0 0
N2664 15.273 0.680 0 0 0
N2665 14.491 0.975 0 0 0
N2666 15.492 0.910 0 0 0
N2668 15.999 0.720 0 0 0
N2670 16.128 0.760 0 0 0
N2672 16.057 0.830 0 0 0
N2674 15.012 0.610 0 0 0
N2676 15.557 0.767 0 0 0
N2678 14.500 0.940 0 0 0
N2680 14.318 0.890 0 0 0
N2682 13.759 0.610 0 0 0
N2684 14.476 0.840 0 0 0
N2686 14.592 0.660 0 0 0
N2688 14.562 0.990 0 0 0
N2691 14.679 0.880 0 0 0
N2692 14.572 0.670 0 0 0
N2694 16.102 0.700 0 0 0
N2697 17.896 0.680 0 0 0
N2699 18.481 0.600 0 0 0
N2701 17.832 0.730 0 0 0
N2703 16.194 0.820 0 0 0
N2705 15.925 0.750 0 0 0
N2707 14.375 0.930 0 0 0
N2708 13.546 1.017 0 0 0
N2710 13.683 0.970 0 0 0
N2712 14.202 1.170 0 0 0
N2714 16.442 0.600 0 0 0
N2715 14.081 0.930 0 0 0
N2717 15.734 0.840 0 0 0
N2718 13.651 0.894 0 0 0
N2719 15.826 1.110 0 0 0
N2721 14.996 0.730 0 0 0
N2724 12.921 0.990 0 0 0
N2726 16.367 0.860 0 0 0
N2727 16.046 0.860 0 0 0
N2728 15.559 0.800 0 0 0
N2730 18.170 0.560 0 0 0
N2732 17.267 0.830 0 0 0
N2733 16.057 0.830 0 0 0
N2735 18.847 0.660 0 0 0
N2736 15.848 1.687 0 0 0
N2738 17.703 0.910 0 0 0
N2740 15.993 0.890 0 0 0
N2741 15.848 1.231 0 0 0
N2742 17.656 0.550 0 0 0
N2744 12.159 0.750 0 0 0
N2746 11.921 1.424 0 0 0
N2748 14.259 0.657 0 0 0
N2749 14.818 0.540 0 0 0
N2751 15.936 0.590 0 0 0
N2752 13.579 1.200 0 0 0
N2753 13.340 1.200 0 0 0
N2755 14.491 0.800 0 0 0
N2756 14.357 1.309 0 0 0
N2757 13.409 1.397 0 0 0
N2758 13.982 0.714 0 0 0
N2759 11.312 2.018 0 0 0
N2761 15.655 0.830 0 0 0
N2762 15.022 1.195 0 0 0
N2763 7.993 0.750 0 0 0
N2765 8.455 0.480 0 0 0
N2767 7.278 1.370 0 0 0
N2768 6.949 1.665 0 0 0
N2769 8.338 0.590 0 0 0
N2771 8.264 1.110 0 0 0
N2773 7.433 1.008 0 0 0
N2775 7.253 0.806 0 0 0
N2777 7.631 0.740 0 0 0
N2778 7.309 0.500 0 0 0
N2780 7.070 0.530 0 0 0
N2782 7.012 0.630 0 0 0
N2784 7.035 0.380 0 0 0
N2786 9.150 1.030 0 0 0
N2787 7.812 1.030 0 0 0
N2788 8.817 0.640 0 0 0
N2789 7.659 0.640 0 0 0
N2790 7.792 0.400 0 0 0
N2791 7.613 1.196 0 0 0
N2793 7.440 1.390 0 0 0
N2794 7.358 1.520 0 0 0
N2796 8.351 0.760 0 0 0
N2798 7.930 0.910 0 0 0
N2799 7.900 0.910 0 0 0
N2801 7.381 2.123 0 0 0
N2803 8.693 0.550 0 0 0
N2805 8.603 0.560 0 0 0
N2807 8.174 0.550 0 0 0
N2808 8.152 0.873 0 0 0
N2810 7.775 1.270 0 0 0
N2812 7.818 0.840 0 0 0
N2813 8.774 0.410 0 0 0
N2814 7.800 1.684 0 0 0
N2816 7.697 0.430 0 0 0
N2818 9.959 0.660 0 0 0
N2820 8.827 0.650 0 0 0
N2822 8.127 0.550 0 0 0
N2824 7.888 1.360 0 0 0
N2825 7.344 2.747 0 0 0
N2826 7.344 2.817 0 0 0
N2829 8.545 0.880 0 0 0
N2830 8.070 0.938 0 0 0
N2832 8.405 1.020 0 0 0
N2834 6.556 2.584 0 0 0
N2836 8.936 0.590 0 0 0
N2837 7.883 0.648 0 0 0
N2838 7.160 0.340 0 0 0
N2840 6.926 0.480 0 0 0
N2842 7.002 1.918 0 0 0
N2844 7.311 0.760 0 0 0
N2846 7.283 0.580 0 0 0
N2849 7.224 0.360 0 0 0
N2851 8.307 0.630 0 0 0
N2852 7.473 0.477 0 0 0
N2854 7.983 0.430 0 0 0
N2855 6.918 1.061 0 0 0
N2857 7.374 0.460 0 0 0
N2859 7.249 0.340 0 0 0
N2861 7.809 0.460 0 0 0
N2862 7.129 0.540 0 0 0
N2863 6.822 0.767 0 0 0
N2865 7.126 0.660 0 0 0
N2867 6.821 0.680 0 0 0
N2869 6.755 0.750 0 0 0
N2871 6.879 0.710 0 0 0
N2873 7.223 0.600 0 0 0
N2875 7.623 0.750 0 0 0
N2877 8.290 0.250 0 0 0
N2880 6.798 1.140 0 0 0
N2882 6.933 1.530 0 0 0
N2884 7.294 0.630 0 0 0
N2885 6.555 0.630 0 0 0
N2887 6.821 0.670 0 0 0
N2889 6.579 1.241 0 0 0
N2892 7.075 0.720 0 0 0
N2894 6.410 0.770 0 0 0
N2896 6.474 0.800 0 0 0
N2897 6.468 0.800 0 0 0
N2899 6.539 0.870 0 0 0
N2901 7.092 0.570 0 0 0
N2903 6.568 0.680 0 0 0
N2905 6.329 0.470 0 0 0
N2907 6.804 0.370 0 0 0
N2909 6.122 0.460 0 0 0
N2911 6.411 0.270 0 0 0
N2913 5.881 0.550 0 0 0
N2915 6.515 0.710 0 0 0
N2916 6.324 0.812 0 0 0
N2918 6.679 0.740 0 0 0
N2920 6.400 0.740 0 0 0
N2922 5.641 0.410 0 0 0
N2924 6.424 0.770 0 0 0
N2926 7.294 1.010 0 0 0
N2928 7.522 0.970 0 0 0
N2930 7.797 0.640 0 0 0
N2932 7.194 1.090 0 0 0
N2934 6.804 0.950 0 0 0
N2936 7.199 0.520 0 0 0
N2938 6.719 1.050 0 0 0
N2940 6.668 0.590 0 0 0
N2942 6.469 0.290 0 0 0
N2944 5.831 0.720 0 0 0
N2946 6.175 0.630 0 0 0
N2948 6.312 1.512 0 0 0
N2949 6.300 0.988 0 0 0
N2950 6.309 0.650 0 0 0
N2951 6.251 0.620 0 0 0
N2952 5.494 0.740 0 0 0
N2953 5.719 0.610 0 0 0
N2955 5.937 0.690 0 0 0
N2957 5.927 0.740 0 0 0
N2958 6.009 0.650 0 0 0
N2960 5.893 0.760 0 0 0
N2962 6.135 0.380 0 0 0
N2964 6.311 0.710 0 0 0
N2967 6.563 0.400 0 0 0
N2969 5.968 0.530 0 0 0
N2971 6.154 0.650 0 0 0
N2973 6.181 0.490 0 0 0
N2975 5.886 0.600 0 0 0
N2977 3.824 1.159 0 0 0
N2978 4.150 0.953 0 0 0
N2979 6.016 0.520 0 0 0
N2980 5.098 0.520 0 0 0
N2981 4.676 0.720 0 0 0
N2982 5.564 0.720 0 0 0
N2983 4.784 0.820 0 0 0
N2984 4.488 0.550 0 0 0
N2986 5.700 0.510 0 0 0
N2988 5.652 0.850 0 0 0
N2990 4.624 0.440 0 0 0
N2992 4.473 0.650 0 0 0
N2994 5.262 0.360 0 0 0
N2996 5.595 0.650 0 0 0
N2998 5.181 0.420 0 0 0
N3000 5.348 0.567 0 0 0
N3002 5.355 0.460 0 0 0
N3003 5.575 0.280 0 0 0
N3005 5.506 0.610 0 0 0
N3006 5.104 0.694 0 0 0
N3008 7.277 0.710 0 0 0
N3009 4.385 1.458 0 0 0
N3011 8.534 0.450 0 0 0
N3012 8.458 0.552 0 0 0
N3014 7.777 1.309 0 0 0
N3016 8.367 0.625 0 0 0
N3017 8.320 0.567 0 0 0
N3018 8.320 0.712 0 0 0
N3019 7.777 0.839 0 0 0
N3020 7.809 0.650 0 0 0
N3021 8.357 0.590 0 0 0
N3022 7.791 0.720 0 0 0
N3023 8.498 1.020 0 0 0
N3024 7.023 0.560 0 0 0
N3025 2.533 0.900 0 0 0
N3026 2.348 1.200 0 0 0
N3027 2.469 0.900 0 0 0
N3029 2.342 0.900 0 0 0
N3031 3.165 0.900 0 0 0
N3033 2.689 0.900 0 0 0
N3035 3.234 0.900 0 0 0
N3037 4.798 0.900 0 0 0
N3039 5.068 0.900 0 0 0
N3041 5.897 1.500 0 0 0
N3042 5.504 1.500 0 0 0
N3043 4.986 0.900 0 0 0
N3045 4.985 0.900 0 0 0
N3047 4.878 0.900 0 0 0
N3049 3.436 0.900 0 0 0
N3051 5.986 0.900 0 0 0
N3052 3.338 0.900 0 0 0
N3054 4.145 1.040 0 0 0
N3056 4.168 0.900 0 0 0
N3057 3.765 1.168 0 0 0
N3059 5.165 1.200 0 0 0
N3060 2.469 4.120 0 0 0
N3063 4.206 0.900 0 0 0
N3065 2.986 0.900 0 0 0
N3067 3.689 0.900 0 0 0
N3069 3.509 0.800 0 0 0
N3071 3.789 1.200 0 0 0
N3073 3.125 0.573 0 0 0
N3074 3.125 0.573 0 0 0
N3075 2.689 1.200 0 0 0
N3077 2.168 1.786 0 0 0
N3079 2.893 0.300 0 0 0
N3081 2.536 0.900 0 0 0
N3083 2.719 0.900 0 0 0
N3084 2.536 1.617 0 0 0
N3086 4.987 0.900 0 0 0
N3088 4.638 0.700 0 0 0
N3090 6.099 0.900 0 0 0
N3092 4.759 0.800 0 0 0
N3093 2.866 2.793 0 0 0
N3095 3.365 1.070 0 0 0
N3097 3.568 0.900 0 0 0
N3099 8.138 1.500 0 0 0
N3101 5.390 1.500 0 0 0
N3102 4.568 1.500 0 0 0
N3103 4.989 1.200 0 0 0
N3104 5.761 1.090 0 0 0
N3106 5.628 1.200 0 0 0
N3108 5.789 0.900 0 0 0
N3110 7.412 0.900 0 0 0
N3111 5.320 2.648 0 0 0
N3112 7.412 0.900 0 0 0
N3114 6.178 1.030 0 0 0
N3116 4.617 0.900 0 0 0
N3117 4.168 3.200 0 0 0
N3118 5.648 0.900 0 0 0
N3120 5.689 0.900 0 0 0
N3122 6.019 1.200 0 0 0
N3124 4.527 3.200 0 0 0
N3125 6.178 1.200 0 0 0
N3126 6.611 0.900 0 0 0
N3128 3.127 4.384 0 0 0
N3129 3.127 0.923 0 0 0
N3130 3.718 0.900 0 0 0
N3132 2.689 0.900 0 0 0
N3134 4.987 0.900 0 0 0
N3136 4.759 0.900 0 0 0
N3138 2.986 0.700 0 0 0
N3140 3.189 0.900 0 0 0
N3142 2.689 1.200 0 0 0
N3144 2.986 0.700 0 0 0
N3146 6.561 0.900 0 0 0
N3147 6.128 0.900 0 0 0
N3149 6.209 1.800 0 0 0
N3151 7.001 0.600 0 0 0
N3153 7.094 1.090 0 0 0
N3156 5.662 1.080 0 0 0
N3158 5.227 0.900 0 0 0
N3160 5.872 1.500 0 0 0
N3162 5.123 1.200 0 0 0
N3163 3.132 2.299 0 0 0
N3164 5.133 1.020 0 0 0
N3166 3.658 1.800 0 0 0
N3168 3.876 1.800 0 0 0
N3170 2.340 1.200 0 0 0
N3172 1.955 1.800 0 0 0
N3174 2.123 1.800 0 0 0
N3175 2.663 1.040 0 0 0
N3177 3.032 2.742 0 0 0
N3179 2.720 0.900 0 0 0
N3181 3.045 1.010 0 0 0
N3183 2.742 1.030 0 0 0
N3185 4.992 1.120 0 0 0
N3187 2.221 1.500 0 0 0
N3189 1.779 0.900 0 0 0
N3191 1.603 0.600 0 0 0
N3193 1.823 0.900 0 0 0
N3195 2.135 1.060 0 0 0
N3197 3.163 1.200 0 0 0
N3199 2.066 1.600 0 0 0
N3201 2.697 0.900 0 0 0
N3203 3.325 0.900 0 0 0
N3205 2.869 1.400 0 0 0
N3207 3.243 1.200 0 0 0
N3209 2.681 1.200 0 0 0
N3211 3.215 1.030 0 0 0
N3213 3.149 1.200 0 0 0
N3215 3.427 0.800 0 0 0
N3217 3.268 1.060 0 0 0
N3219 2.869 1.200 0 0 0
N3221 2.052 1.030 0 0 0
N3223 2.792 0.900 0 0 0
N3225 2.898 0.900 0 0 0
N3227 3.480 0.900 0 0 0
N3229 3.258 0.800 0 0 0
N3232 2.096 1.800 0 0 0
N3234 1.962 0.900 0 0 0
N3236 4.215 1.200 0 0 0
N3238 4.215 0.800 0 0 0
N3240 2.317 1.070 0 0 0
N3241 1.369 2.748 0 0 0
N3243 2.324 1.130 0 0 0
N3245 4.638 1.050 0 0 0
N3246 6.343 0.900 0 0 0
N3248 3.966 0.900 0 0 0
N3250 4.536 0.900 0 0 0
N3252 2.953 1.350 0 0 0
N3254 4.126 0.400 0 0 0
N3256 4.196 0.900 0 0 0
N3257 2.954 1.952 0 0 0
N3258 4.235 1.070 0 0 0
N3259 4.956 1.070 0 0 0
N3260 4.167 0.400 0 0 0
N3262 2.715 1.100 0 0 0
N3264 3.691 1.200 0 0 0
N3266 3.428 0.900 0 0 0
N3268 4.370 0.900 0 0 0
N3270 4.406 1.600 0 0 0
N3272 2.612 0.900 0 0 0
N3274 1.757 0.600 0 0 0
N3276 1.992 0.600 0 0 0
N3278 2.652 1.651 0 0 0
N3280 3.690 1.060 0 0 0
N3282 2.413 0.500 0 0 0
N3284 5.632 1.284 0 0 0
N3286 6.506 1.060 0 0 0
N3287 5.891 1.060 0 0 0
N3288 6.417 0.600 0 0 0
N3290 5.632 0.584 0 0 0
N3291 5.167 0.500 0 0 0
N3293 2.416 1.909 0 0 0
N3295 2.116 1.500 0 0 0
N3296 2.116 1.619 0 0 0
N3297 2.544 1.500 0 0 0
N3299 2.703 0.900 0 0 0
N3300 3.604 0.900 0 0 0
N3302 4.010 0.600 0 0 0
N3304 2.950 1.800 0 0 0
N3306 3.373 1.800 0 0 0
N3308 3.539 0.900 0 0 0
N3310 3.551 0.900 0 0 0
N3313 2.678 0.900 0 0 0
N3314 2.370 0.900 0 0 0
N3316 6.576 0.700 0 0 0
N3318 2.651 0.700 0 0 0
N3320 2.986 0.700 0 0 0
N3322 3.288 1.227 0 0 0
N3324 2.843 0.700 0 0 0
N3326 3.179 0.700 0 0 0
N3328 2.801 0.900 0 0 0
N3329 2.723 1.988 0 0 0
N3330 5.762 0.700 0 0 0
N3333 3.925 0.700 0 0 0
N3335 2.723 2.375 0 0 0
N3337 3.184 1.500 0 0 0
N3339 3.133 1.300 0 0 0
N3341 3.006 1.600 0 0 0
N3343 3.921 0.700 0 0 0
N3344 2.898 2.193 0 0 0
N3345 3.317 1.100 0 0 0
N3347 2.449 0.760 0 0 0
N3348 2.360 1.258 0 0 0
N3349 2.666 0.650 0 0 0
N3352 3.008 0.750 0 0 0
N3354 2.947 0.650 0 0 0
N3356 2.774 0.400 0 0 0
N3358 3.226 0.750 0 0 0
N3360 3.214 0.550 0 0 0
N3362 2.367 0.500 0 0 0
N3364 3.100 1.642 0 0 0
N3366 2.581 1.106 0 0 0
N3368 2.581 1.500 0 0 0
N3370 2.304 0.950 0 0 0
N3372 4.664 0.950 0 0 0
N3374 3.121 0.750 0 0 0
N3376 3.212 0.650 0 0 0
N3378 2.502 0.450 0 0 0
N3380 2.378 0.750 0 0 0
N3381 2.295 1.544 0 0 0
N3382 2.378 1.129 0 0 0
N3383 3.089 0.600 0 0 0
N3384 3.070 0.600 0 0 0
N3386 2.968 0.600 0 0 0
N3388 2.498 0.350 0 0 0
N3390 2.757 0.750 0 0 0
N3391 2.740 0.800 0 0 0
N3392 2.735 0.600 0 0 0
N3394 2.848 0.750 0 0 0
N3396 3.598 0.650 0 0 0
N3398 4.983 0.900 0 0 0
N3401 3.331 0.700 0 0 0
N3403 2.883 0.800 0 0 0
N3404 4.176 0.550 0 0 0
N3406 3.206 0.450 0 0 0
N3408 2.594 2.354 0 0 0
N3410 4.082 0.600 0 0 0
N3412 3.310 0.350 0 0 0
N3414 5.439 0.950 0 0 0
N3416 6.021 0.400 0 0 0
N3418 5.550 0.800 0 0 0
N3419 4.774 1.826 0 0 0
N3421 6.319 0.550 0 0 0
N3423 4.815 0.750 0 0 0
N3425 5.759 0.500 0 0 0
N3426 5.487 1.098 0 0 0
N3427 6.105 0.500 0 0 0
N3428 4.535 0.550 0 0 0
N3429 3.759 1.605 0 0 0
N3431 3.839 0.250 0 0 0
N3433 3.922 0.600 0 0 0
N3434 3.355 0.600 0 0 0
N3435 2.775 0.869 0 0 0
N3437 3.343 0.650 0 0 0
N3439 4.012 0.750 0 0 0
N3441 3.229 0.950 0 0 0
N3443 3.273 0.600 0 0 0
N3445 3.521 0.600 0 0 0
N3446 3.192 1.365 0 0 0
N3448 3.087 0.950 0 0 0
N3450 4.498 0.300 0 0 0
N3452 3.984 0.300 0 0 0
N3454 6.032 0.600 0 0 0
N3455 4.618 1.705 0 0 0
N3457 4.946 0.250 0 0 0
N3458 2.730 1.504 0 0 0
N3459 5.597 0.350 0 0 0
N3460 4.784 0.350 0 0 0
N3462 5.872 0.450 0 0 0
N3464 6.348 0.300 0 0 0
N3466 6.735 0.250 0 0 0
N3468 7.160 0.300 0 0 0
N3470 6.542 0.600 0 0 0
N3472 3.984 0.600 0 0 0
N3473 3.963 0.550 0 0 0
N3475 3.963 0.650 0 0 0
N3477 4.040 0.650 0 0 0
N3479 3.355 0.650 0 0 0
N3481 3.850 0.950 0 0 0
N3483 3.689 0.550 0 0 0
N3485 3.549 1.472 0 0 0
N3486 3.415 1.049 0 0 0
N3487 4.192 0.600 0 0 0
N3489 4.039 1.150 0 0 0
N3491 3.514 0.950 0 0 0
N3493 3.964 0.750 0 0 0
N3495 4.640 1.050 0 0 0
N3498 3.987 0.650 0 0 0
N3500 2.957 1.637 0 0 0
N3502 3.133 3.065 0 0 0
N3504 3.594 0.750 0 0 0
N3506 3.589 0.600 0 0 0
N3507 3.470 0.775 0 0 0
N3509 3.662 0.900 0 0 0
N3511 4.103 0.550 0 0 0
N3513 3.740 0.950 0 0 0
N3515 3.695 0.450 0 0 0
N3517 3.643 0.600 0 0 0
N3519 7.358 0.400 0 0 0
N3521 3.230 0.881 0 0 0
N3523 4.101 0.600 0 0 0
N3525 4.175 0.750 0 0 0
N3527 3.283 0.880 0 0 0
N3530 3.271 0.800 0 0 0
N3531 2.659 1.263 0 0 0
N3532 3.038 0.883 0 0 0
N3533 3.097 0.570 0 0 0
N3535 3.371 0.650 0 0 0
N3536 3.397 0.550 0 0 0
N3538 3.679 0.700 0 0 0
N3540 3.167 0.950 0 0 0
N3542 4.016 0.650 0 0 0
N3544 3.931 0.650 0 0 0
N3546 3.575 0.650 0 0 0
N3548 3.543 0.750 0 0 0
N3550 3.474 0.600 0 0 0
N3552 3.314 0.700 0 0 0
N3554 3.030 0.950 0 0 0
N3556 3.451 0.650 0 0 0
N3557 3.115 0.980 0 0 0
N3559 3.284 0.550 0 0 0
N3561 4.237 0.820 0 0 0
N3563 3.279 0.700 0 0 0
N3565 4.201 0.650 0 0 0
N3567 3.439 0.750 0 0 0
N3570 4.207 0.500 0 0 0
N3572 5.449 0.600 0 0 0
N3574 4.419 0.650 0 0 0
N3576 4.947 0.450 0 0 0
N3579 5.112 0.650 0 0 0
N3580 5.025 1.421 0 0 0
N3582 5.812 0.350 0 0 0
N3584 5.747 0.250 0 0 0
N3586 5.601 0.300 0 0 0
N3588 5.725 0.350 0 0 0
N3590 6.226 0.650 0 0 0
N3592 5.485 0.750 0 0 0
N3593 4.903 1.592 0 0 0
N3594 5.696 0.850 0 0 0
N3595 4.623 0.750 0 0 0
N3597 4.816 0.500 0 0 0
N3599 5.357 0.450 0 0 0
N3601 6.469 0.850 0 0 0
N3602 5.851 0.850 0 0 0
N3604 4.930 0.750 0 0 0
N3605 3.790 2.432 0 0 0
N3606 4.930 2.614 0 0 0
N3608 6.264 0.850 0 0 0
N3610 6.227 0.850 0 0 0
N3612 7.596 0.550 0 0 0
N3614 6.894 1.150 0 0 0
N3616 7.097 0.750 0 0 0
N3618 5.762 0.964 0 0 0
N3621 7.428 0.750 0 0 0
N3623 6.116 0.900 0 0 0
N3624 5.337 2.662 0 0 0
N3626 6.114 0.650 0 0 0
N3628 7.263 0.650 0 0 0
N3630 6.359 0.950 0 0 0
N3631 6.146 1.163 0 0 0
N3633 6.038 0.700 0 0 0
N3635 5.619 0.827 0 0 0
N3636 5.622 0.750 0 0 0
N3638 6.073 0.700 0 0 0
N3640 5.991 0.650 0 0 0
N3641 5.622 1.019 0 0 0
N3643 8.031 0.700 0 0 0
N3645 8.137 0.700 0 0 0
N3648 7.011 0.600 0 0 0
N3650 6.495 0.800 0 0 0
N3651 3.930 1.145 0 0 0
N3652 5.873 0.900 0 0 0
N3653 4.439 0.900 0 0 0
N3655 4.551 0.500 0 0 0
N3657 4.094 0.900 0 0 0
N3659 5.761 0.650 0 0 0
N3661 5.441 0.950 0 0 0
N3665 4.778 0.750 0 0 0
N3667 6.274 0.300 0 0 0
N3669 6.334 0.450 0 0 0
N3671 5.872 0.400 0 0 0
N3673 5.807 0.450 0 0 0
N3675 5.497 0.500 0 0 0
N3678 5.764 0.572 0 0 0
N3681 5.523 0.400 0 0 0
N3683 5.233 0.350 0 0 0
N3685 4.900 0.690 0 0 0
N3688 4.994 0.682 0 0 0
N3691 6.535 0.300 0 0 0
N3693 6.009 0.500 0 0 0
N3695 6.094 0.450 0 0 0
N3696 5.504 0.719 0 0 0
N3698 5.092 0.650 0 0 0
N3700 5.266 0.400 0 0 0
N3702 4.754 0.799 0 0 0
N3705 4.990 0.900 0 0 0
N3706 4.860 1.165 0 0 0
N3708 4.344 1.096 0 0 0
N3709 4.774 0.650 0 0 0
N3710 6.386 0.500 0 0 0
N3712 7.163 0.450 0 0 0
N3714 6.968 0.733 0 0 0
N3717 4.569 0.600 0 0 0
N3719 4.635 0.450 0 0 0
N3721 3.851 0.750 0 0 0
N3723 4.364 0.750 0 0 0
N3724 3.959 1.030 0 0 0
N3726 4.308 0.650 0 0 0
N3728 4.275 0.950 0 0 0
N3730 5.012 0.350 0 0 0
N3733 2.422 0.950 0 0 0
N3734 2.823 0.750 0 0 0
N3736 2.345 1.050 0 0 0
N3738 1.369 2.186 0 0 0
N3740 3.834 0.750 0 0 0
N3742 3.321 1.050 0 0 0
N3744 3.686 0.700 0 0 0
N3746 3.361 0.950 0 0 0
N3748 3.909 0.650 0 0 0
N3750 3.080 0.550 0 0 0
N3752 3.437 0.750 0 0 0
N3754 4.019 0.750 0 0 0
N3756 3.876 0.700 0 0 0
N3758 3.441 0.750 0 0 0
N3760 3.570 0.800 0 0 0
N3762 3.351 0.750 0 0 0
N3764 3.566 0.750 0 0 0
N3767 3.658 1.050 0 0 0
N3768 4.165 0.700 0 0 0
N3770 3.485 0.650 0 0 0
N3772 3.789 1.300 0 0 0
N3774 3.438 0.750 0 0 0
N3775 2.819 1.421 0 0 0
N3777 3.321 0.950 0 0 0
N3778 2.818 0.950 0 0 0
N3779 5.519 0.350 0 0 0
N3781 3.801 0.250 0 0 0
N3783 3.545 0.950 0 0 0
N3785 3.446 0.250 0 0 0
N3787 3.502 0.260 0 0 0
N3789 3.903 0.400 0 0 0
N3791 3.668 0.950 0 0 0
N3793 2.391 1.127 0 0 0
N3794 2.989 0.650 0 0 0
N3796 2.819 0.950 0 0 0
N3797 3.212 1.150 0 0 0
N3798 2.720 1.442 0 0 0
N3799 3.072 1.567 0 0 0
N3801 3.103 0.800 0 0 0
N3803 3.436 0.560 0 0 0
N3805 2.509 1.150 0 0 0
N3807 2.225 1.850 0 0 0
N3809 2.620 0.600 0 0 0
N3811 2.329 0.800 0 0 0
N3813 2.554 0.750 0 0 0
N3816 2.572 0.790 0 0 0
N3817 2.665 0.650 0 0 0
N3819 2.579 0.750 0 0 0
N3821 2.761 0.600 0 0 0
N3822 1.837 1.674 0 0 0
N3823 2.657 0.800 0 0 0
N3824 2.007 1.410 0 0 0
N3825 2.871 0.750 0 0 0
N3826 2.448 0.850 0 0 0
N3828 2.871 0.750 0 0 0
N3830 2.727 0.650 0 0 0
N3832 4.810 0.700 0 0 0
N3834 3.349 0.450 0 0 0
N3836 3.101 0.450 0 0 0
N3838 2.813 0.850 0 0 0
N3841 3.151 0.750 0 0 0
N3842 2.776 1.203 0 0 0
N3844 3.053 0.450 0 0 0
N3846 2.769 0.750 0 0 0
N3848 2.549 0.900 0 0 0
N3850 6.323 0.550 0 0 0
N3852 5.496 0.510 0 0 0
N3854 6.023 0.750 0 0 0
N3855 5.865 0.750 0 0 0
N3857 5.496 0.850 0 0 0
N3859 5.838 0.650 0 0 0
N3861 5.515 0.450 0 0 0
N3863 5.736 1.450 0 0 0
N3864 4.704 1.482 0 0 0
N3865 2.906 0.600 0 0 0
N3867 2.863 0.600 0 0 0
N3869 3.326 0.750 0 0 0
N3870 3.100 0.976 0 0 0
N3871 3.052 0.450 0 0 0
N3873 3.233 0.300 0 0 0
N3875 2.858 0.400 0 0 0
N3877 3.011 1.050 0 0 0
N3879 2.746 1.160 0 0 0
N3880 2.968 0.300 0 0 0
N3882 3.325 0.300 0 0 0
N3884 2.746 0.963 0 0 0
N3886 3.021 0.500 0 0 0
N3888 3.092 0.850 0 0 0
N3890 2.891 0.650 0 0 0
N3891 2.788 0.650 0 0 0
N3892 2.917 0.450 0 0 0
N3893 3.157 0.710 0 0 0
N3894 3.116 0.658 0 0 0
N3896 3.116 1.278 0 0 0
N3897 3.276 0.700 0 0 0
N3898 3.013 0.700 0 0 0
N3901 3.649 0.950 0 0 0
N3903 3.694 0.850 0 0 0
N3905 3.574 0.450 0 0 0
N3907 3.347 0.660 0 0 0
N3909 3.241 0.610 0 0 0
N3910 3.103 0.924 0 0 0
N3911 4.419 0.600 0 0 0
N3913 3.738 0.620 0 0 0
N3915 2.651 0.680 0 0 0
N3918 2.646 0.700 0 0 0
N3920 2.839 0.780 0 0 0
N3922 3.347 0.760 0 0 0
N3924 2.960 0.760 0 0 0
N3926 5.244 0.760 0 0 0
N3928 3.714 0.750 0 0 0
N3930 3.094 0.500 0 0 0
N3932 3.451 0.560 0 0 0
N3934 3.511 0.300 0 0 0
N3936 3.461 0.850 0 0 0
N3938 1.800 0.850 0 0 0
N3940 3.581 0.700 0 0 0
N3943 2.725 0.600 0 0 0
N3944 2.929 0.600 0 0 0
N3946 3.129 0.680 0 0 0
N3948 4.193 0.500 0 0 0
N3951 3.806 0.550 0 0 0
N3952 3.212 0.750 0 0 0
N3954 3.534 0.650 0 0 0
N3956 3.839 0.550 0 0 0
N3958 4.138 0.350 0 0 0
N3960 3.379 0.850 0 0 0
N3961 2.411 2.452 0 0 0
N3962 3.652 0.700 0 0 0
N3964 5.024 0.650 0 0 0
N3966 5.398 0.300 0 0 0
N3968 3.559 0.750 0 0 0
N3970 3.379 0.450 0 0 0
N3972 3.828 0.350 0 0 0
N3974 4.127 0.450 0 0 0
N3977 4.266 0.550 0 0 0
N3978 2.760 0.850 0 0 0
N3979 2.205 0.850 0 0 0
N3980 2.542 0.450 0 0 0
N3981 1.936 1.357 0 0 0
N3982 2.478 0.800 0 0 0
N3983 2.575 0.530 0 0 0
N3985 2.992 0.750 0 0 0
N3986 2.005 1.414 0 0 0
N3987 2.532 0.540 0 0 0
N3989 2.810 0.650 0 0 0
N3991 2.810 0.450 0 0 0
N3993 2.745 0.580 0 0 0
N3995 2.640 0.550 0 0 0
N3997 2.333 1.266 0 0 0
N3998 2.926 0.700 0 0 0
N4000 2.924 0.550 0 0 0
N4002 2.332 0.850 0 0 0
N4004 3.350 1.050 0 0 0
N4006 3.813 1.150 0 0 0
N4008 3.127 1.150 0 0 0
N4009 3.192 1.150 0 0 0
N4011 3.340 0.550 0 0 0
N4013 3.240 0.400 0 0 0
N4015 2.607 0.700 0 0 0
N4017 2.439 0.950 0 0 0
N4019 3.462 0.861 0 0 0
N4023 3.457 0.480 0 0 0
N4025 3.677 0.360 0 0 0
N4027 4.295 0.620 0 0 0
N4028 3.525 0.620 0 0 0
N4029 3.378 0.370 0 0 0
N4031 3.771 0.460 0 0 0
N4032 3.074 1.097 0 0 0
N4034 4.102 0.370 0 0 0
N4036 3.496 0.680 0 0 0
N4038 3.865 0.980 0 0 0
N4040 4.561 0.490 0 0 0
N4042 3.970 0.900 0 0 0
N4043 3.885 1.880 0 0 0
N4044 4.094 0.730 0 0 0
N4045 3.936 0.730 0 0 0
N4047 3.885 1.160 0 0 0
N4048 4.844 0.410 0 0 0
N4050 4.698 0.300 0 0 0
N4052 4.565 0.420 0 0 0
N4054 3.592 0.700 0 0 0
N4056 3.991 0.500 0 0 0
N4059 4.277 0.500 0 0 0
N4061 4.331 0.300 0 0 0
N4063 4.754 0.290 0 0 0
N4065 3.957 0.850 0 0 0
N4067 4.245 0.720 0 0 0
N4068 4.004 1.040 0 0 0
N4069 4.765 0.850 0 0 0
N4070 3.535 2.270 0 0 0
N4071 4.166 0.420 0 0 0
N4073 5.259 0.500 0 0 0
N4075 4.592 0.660 0 0 0
N4077 3.802 0.530 0 0 0
N4079 3.973 0.610 0 0 0
N4081 3.569 0.970 0 0 0
N4083 3.517 1.130 0 0 0
N4084 3.360 1.684 0 0 0
N4085 3.377 0.780 0 0 0
N4087 4.494 0.580 0 0 0
N4088 3.517 0.916 0 0 0
N4089 5.698 0.490 0 0 0
N4090 4.916 1.442 0 0 0
N4091 5.437 0.630 0 0 0
N4093 5.008 0.710 0 0 0
N4096 6.130 0.730 0 0 0
N4097 5.311 1.984 0 0 0
N4098 5.939 0.720 0 0 0
N4100 6.083 0.670 0 0 0
N4102 5.375 0.710 0 0 0
N4104 5.392 0.680 0 0 0
N4106 5.699 0.740 0 0 0
N4108 5.501 0.910 0 0 0
N4110 5.875 0.820 0 0 0
N4112 5.712 0.880 0 0 0
N4114 5.333 0.720 0 0 0
N4116 5.340 0.400 0 0 0
N4118 5.347 0.680 0 0 0
N4120 5.044 0.780 0 0 0
N4122 5.763 0.900 0 0 0
N4124 5.022 0.980 0 0 0
N4126 4.535 0.700 0 0 0
N4128 4.611 1.970 0 0 0
N4130 3.152 1.958 0 0 0
N4132 3.997 1.390 0 0 0
N4134 4.945 1.081 0 0 0
N4136 5.238 0.700 0 0 0
N4138 5.186 0.420 0 0 0
N4140 5.405 0.650 0 0 0
N4142 4.425 0.620 0 0 0
N4144 4.488 0.250 0 0 0
N4145 3.103 0.840 0 0 0
N4146 4.789 0.940 0 0 0
N4148 3.847 0.960 0 0 0
N4151 2.496 0.780 0 0 0
N4153 2.233 0.500 0 0 0
N4154 1.788 1.285 0 0 0
N4156 1.040 2.466 0 0 0
N4158 2.374 0.880 0 0 0
N4160 2.323 0.520 0 0 0
N4162 2.310 0.450 0 0 0
N4164 4.203 0.730 0 0 0
N4165 2.106 2.310 0 0 0
N4166 1.142 2.310 0 0 0
N4167 0.774 2.939 0 0 0
N4168 2.628 0.690 0 0 0
N4170 3.209 0.370 0 0 0
N4172 3.130 1.740 0 0 0
N4174 2.477 1.100 0 0 0
N4175 1.844 1.250 0 0 0
N4177 3.130 0.970 0 0 0
N4179 5.049 1.346 0 0 0
N4181 5.134 0.810 0 0 0
N4183 5.123 1.010 0 0 0
N4185 5.194 0.720 0 0 0
N4186 4.854 0.720 0 0 0
N4188 5.186 0.600 0 0 0
N4189 4.945 1.141 0 0 0
N4191 5.404 0.580 0 0 0
N4193 5.286 0.900 0 0 0
N4194 5.151 0.900 0 0 0
N4196 6.130 0.960 0 0 0
N4198 5.150 0.750 0 0 0
N4199 4.930 1.511 0 0 0
N4201 5.264 1.091 0 0 0
N4203 5.805 0.430 0 0 0
N4204 6.035 0.620 0 0 0
N4206 5.006 0.960 0 0 0
N4208 4.202 0.490 0 0 0
N4210 5.269 0.500 0 0 0
N4211 5.147 0.510 0 0 0
N4213 4.361 0.910 0 0 0
N4214 4.306 0.945 0 0 0
N4216 4.634 0.720 0 0 0
N4217 5.458 1.060 0 0 0
N4218 4.259 1.669 0 0 0
N4220 5.331 0.760 0 0 0
N4221 3.267 0.350 0 0 0
N4222 2.930 1.442 0 0 0
N4224 4.582 0.680 0 0 0
N4225 3.662 1.220 0 0 0
N4226 3.687 0.870 0 0 0
N4228 3.723 0.520 0 0 0
N4229 3.401 1.186 0 0 0
N4231 3.831 0.690 0 0 0
N4233 3.944 0.670 0 0 0
N4234 4.393 0.732 0 0 0
N4236 4.393 0.660 0 0 0
N4237 4.250 0.725 0 0 0
N4238 5.197 0.560 0 0 0
N4239 4.017 0.560 0 0 0
N4240 4.038 0.360 0 0 0
N4242 4.858 0.430 0 0 0
N4243 3.122 1.512 0 0 0
N4245 4.484 0.210 0 0 0
N4247 5.262 0.870 0 0 0
N4248 3.973 1.216 0 0 0
N4250 3.487 2.049 0 0 0
N4251 3.935 1.731 0 0 0
N4252 3.609 0.950 0 0 0
N4253 5.556 1.080 0 0 0
N4255 5.134 0.820 0 0 0
N4257 5.556 0.780 0 0 0
N4258 4.825 1.248 0 0 0
N4260 4.993 1.050 0 0 0
N4262 3.517 0.950 0 0 0
N4263 3.448 0.950 0 0 0
N4264 2.939 1.330 0 0 0
N4266 4.175 0.700 0 0 0
N4267 2.927 0.750 0 0 0
N4268 2.501 0.901 0 0 0
N4269 3.604 0.900 0 0 0
N4271 2.738 0.950 0 0 0
N4272 2.631 1.050 0 0 0
N4274 2.651 0.900 0 0 0
N4275 2.474 1.341 0 0 0
N4276 2.852 1.010 0 0 0
N4278 2.756 1.050 0 0 0
N4280 2.474 0.889 0 0 0
N4282 2.352 0.950 0 0 0
N4284 2.266 0.750 0 0 0
N4286 2.232 0.750 0 0 0
N4288 2.809 0.750 0 0 0
N4290 3.162 0.750 0 0 0
N4292 2.340 0.900 0 0 0
N4293 2.172 0.950 0 0 0
N4294 1.625 1.131 0 0 0
N4297 -0.518 4.868 0 0 0
N4299 1.525 0.900 0 0 0
N4300 1.472 1.440 0 0 0
N4301 1.525 1.387 0 0 0
N4302 1.928 1.399 0 0 0
N4304 2.352 0.750 0 0 0
N4306 2.888 0.800 0 0 0
N4308 2.339 0.990 0 0 0
N4309 2.339 1.496 0 0 0
N4310 2.576 1.177 0 0 0
N4312 2.652 0.850 0 0 0
N4313 3.348 0.750 0 0 0
N4315 2.474 1.241 0 0 0
N4317 3.043 0.900 0 0 0
N4319 2.998 0.850 0 0 0
N4320 2.908 1.264 0 0 0
N4322 3.461 0.650 0 0 0
N4323 3.380 0.850 0 0 0
N4325 3.115 0.800 0 0 0
N4327 3.262 0.900 0 0 0
N4329 3.189 1.150 0 0 0
N4331 3.044 0.900 0 0 0
N4333 3.562 0.750 0 0 0
N4334 3.119 1.093 0 0 0
N4335 2.820 1.360 0 0 0
N4336 2.406 0.962 0 0 0
N4337 2.773 0.700 0 0 0
N4339 2.568 0.750 0 0 0
N4340 2.569 0.750 0 0 0
N4342 2.469 0.950 0 0 0
N4343 1.474 1.034 0 0 0
N4345 2.720 0.850 0 0 0
N4347 2.675 0.850 0 0 0
N4349 2.720 0.700 0 0 0
N4351 2.935 0.700 0 0 0
N4353 1.532 1.010 0 0 0
N4354 1.474 1.032 0 0 0
N4355 1.550 1.633 0 0 0
N4357 1.938 0.750 0 0 0
N4358 1.922 0.750 0 0 0
N4360 2.202 0.650 0 0 0
N4361 1.785 1.901 0 0 0
N4363 2.819 0.750 0 0 0
N4367 2.562 0.700 0 0 0
N4369 3.074 0.700 0 0 0
N4370 2.626 0.798 0 0 0
N4372 5.421 0.750 0 0 0
N4374 4.912 0.700 0 0 0
N4375 4.860 1.388 0 0 0
N4377 5.845 0.700 0 0 0
N4379 5.609 0.350 0 0 0
N4380 5.464 0.700 0 0 0
N4382 5.162 0.750 0 0 0
N4384 4.389 0.750 0 0 0
N4386 5.947 0.850 0 0 0
N4388 5.608 0.600 0 0 0
N4389 5.198 2.219 0 0 0
N4392 4.436 0.700 0 0 0
N4393 4.543 0.600 0 0 0
N4394 3.927 1.216 0 0 0
N4396 6.530 0.450 0 0 0
N4398 6.429 0.650 0 0 0
N4400 6.923 0.650 0 0 0
N4401 6.530 0.821 0 0 0
N4403 6.677 0.900 0 0 0
N4404 6.141 1.236 0 0 0
N4405 7.049 0.700 0 0 0
N4406 4.620 0.600 0 0 0
N4408 6.856 0.700 0 0 0
N4410 6.863 0.600 0 0 0
N4412 7.687 0.550 0 0 0
N4414 6.634 0.450 0 0 0
N4416 5.064 0.700 0 0 0
N4417 2.947 0.700 0 0 0
N4418 3.110 0.750 0 0 0
N4420 2.827 0.750 0 0 0
N4422 2.159 2.191 0 0 0
N4424 2.103 0.700 0 0 0
N4426 1.912 1.483 0 0 0
N4428 1.997 0.750 0 0 0
N4431 2.103 1.024 0 0 0
N4433 2.377 0.750 0 0 0
N4434 2.159 0.810 0 0 0
N4435 2.162 0.800 0 0 0
N4436 1.946 0.800 0 0 0
N4437 2.188 0.900 0 0 0
N4439 2.218 0.900 0 0 0
N4440 2.269 0.700 0 0 0
N4442 2.399 0.700 0 0 0
N4444 2.344 0.700 0 0 0
N4445 2.438 0.750 0 0 0
N4446 2.158 1.382 0 0 0
N4448 2.295 0.950 0 0 0
N4449 1.659 1.691 0 0 0
N4450 2.430 0.750 0 0 0
N4453 2.438 1.256 0 0 0
N4456 2.866 0.750 0 0 0
N4457 2.673 0.700 0 0 0
N4459 2.798 0.750 0 0 0
N4461 2.527 0.800 0 0 0
N4463 1.456 1.850 0 0 0
N4465 2.331 1.510 0 0 0
N4468 2.489 1.303 0 0 0
N4470 2.609 0.700 0 0 0
N4472 2.338 1.050 0 0 0
N4474 2.227 1.050 0 0 0
N4476 2.078 1.050 0 0 0
N4478 1.991 1.050 0 0 0
N4482 4.132 0.650 0 0 0
N4484 9.041 0.870 0 0 0
N4486 10.142 0.430 0 0 0
N4488 7.038 1.010 0 0 0
N4490 9.410 0.860 0 0 0
N4492 8.637 0.790 0 0 0
N4494 4.865 0.960 0 0 0
N4496 8.619 0.710 0 0 0
N4497 7.949 0.900 0 0 0
N4498 7.289 1.010 0 0 0
N4499 7.817 0.670 0 0 0
N4500 7.664 0.700 0 0 0
N4502 2.572 0.880 0 0 0
N4504 2.874 1.410 0 0 0
N4506 2.837 0.660 0 0 0
N4508 2.714 0.630 0 0 0
N4510 3.582 0.720 0 0 0
N4512 2.881 0.670 0 0 0
N4514 2.778 0.760 0 0 0
N4516 2.899 0.500 0 0 0
N4518 2.960 0.610 0 0 0
N4520 2.966 0.500 0 0 0
N4522 2.908 0.910 0 0 0
N4524 2.402 1.040 0 0 0
N4526 2.472 0.780 0 0 0
N4527 2.391 0.871 0 0 0
N4528 2.446 0.994 0 0 0
N4530 2.967 0.770 0 0 0
N4532 3.201 0.610 0 0 0
N4534 3.084 0.470 0 0 0
N4536 2.707 0.630 0 0 0
N4538 2.962 0.650 0 0 0
N4540 2.609 0.810 0 0 0
N4542 2.669 0.460 0 0 0
N4544 3.319 0.680 0 0 0
N4545 2.190 1.235 0 0 0
N4546 2.634 0.550 0 0 0
N4548 2.745 0.970 0 0 0
N4549 1.657 1.360 0 0 0
N4550 1.486 1.685 0 0 0
N4551 1.486 1.665 0 0 0
N4552 5.403 1.350 0 0 0
N4553 2.160 0.470 0 0 0
N4556 2.458 0.780 0 0 0
N4557 1.678 1.645 0 0 0
N4559 5.682 0.770 0 0 0
N4561 5.264 0.440 0 0 0
N4563 2.252 1.100 0 0 0
N4565 2.579 0.810 0 0 0
N4567 2.774 0.620 0 0 0
N4569 2.708 0.740 0 0 0
N4571 1.817 0.550 0 0 0
N4572 1.678 1.383 0 0 0
N4573 2.471 0.710 0 0 0
N4574 2.293 1.000 0 0 0
N4576 2.387 0.730 0 0 0
N4578 5.336 1.200 0 0 0
N4580 3.804 0.540 0 0 0
N4582 3.641 0.730 0 0 0
N4584 4.426 0.520 0 0 0
N4586 4.516 0.630 0 0 0
N4588 6.392 0.370 0 0 0
N4590 6.393 0.380 0 0 0
N4592 6.740 0.300 0 0 0
N4594 5.498 0.610 0 0 0
N4595 4.054 2.274 0 0 0
N4597 3.006 0.590 0 0 0
N4599 3.006 0.590 0 0 0
N4600 2.068 1.640 0 0 0
N4601 2.748 1.180 0 0 0
N4602 2.728 1.260 0 0 0
N4603 4.122 1.130 0 0 0
N4605 3.242 1.360 0 0 0
N4607 3.289 0.730 0 0 0
N4609 2.418 1.210 0 0 0
N4611 4.216 1.420 0 0 0
N4613 3.964 0.990 0 0 0
N4614 4.357 0.660 0 0 0
N4616 2.172 0.640 0 0 0
N4617 1.523 1.278 0 0 0
N4618 2.003 2.205 0 0 0
N4620 2.661 0.440 0 0 0
N4622 3.110 0.520 0 0 0
N4623 2.556 1.014 0 0 0
N4624 2.073 2.150 0 0 0
N4625 2.021 0.970 0 0 0
N4626 1.335 1.745 0 0 0
N4627 1.920 2.140 0 0 0
N4629 1.676 0.660 0 0 0
N4631 3.394 0.600 0 0 0
N4633 2.037 0.790 0 0 0
N4634 2.028 0.840 0 0 0
N4636 2.232 0.740 0 0 0
N4638 2.160 0.690 0 0 0
N4640 4.017 2.434 0 0 0
N4642 2.745 1.130 0 0 0
N4644 2.411 0.570 0 0 0
N4647 2.129 0.640 0 0 0
N4649 1.150 1.080 0 0 0
N4650 2.002 0.600 0 0 0
N4652 2.039 0.854 0 0 0
N4653 2.140 0.651 0 0 0
N4654 2.240 0.440 0 0 0
N4657 2.357 0.560 0 0 0
N4658 2.357 0.570 0 0 0
N4659 2.231 1.011 0 0 0
N4661 2.080 1.270 0 0 0
N4663 1.756 1.220 0 0 0
N4664 1.315 1.572 0 0 0
N4666 1.787 1.280 0 0 0
N4669 1.964 0.980 0 0 0
N4671 2.416 1.500 0 0 0
N4673 2.397 1.520 0 0 0
N4675 2.083 1.280 0 0 0
N4676 2.659 1.950 0 0 0
N4678 2.920 0.870 0 0 0
N4680 2.186 1.220 0 0 0
N4681 1.944 3.108 0 0 0
N4682 1.944 3.644 0 0 0
N4684 2.656 1.291 0 0 0
N4686 5.429 0.600 0 0 0
N4687 3.711 1.172 0 0 0
N4689 4.368 0.490 0 0 0
N4691 4.667 0.950 0 0 0
N4693 5.096 0.950 0 0 0
N4695 3.163 0.450 0 0 0
N4696 2.532 1.281 0 0 0
N4697 2.884 0.700 0 0 0
N4699 3.042 0.400 0 0 0
N4701 2.419 0.500 0 0 0
N4703 3.274 0.350 0 0 0
N4705 3.249 0.650 0 0 0
N4706 2.585 1.110 0 0 0
N4708 2.638 1.010 0 0 0
N4709 2.417 1.842 0 0 0
N4711 4.116 1.200 0 0 0
N4712 2.105 1.624 0 0 0
N4714 2.979 0.900 0 0 0
N4716 2.969 0.600 0 0 0
N4718 2.944 0.900 0 0 0
N4720 2.519 1.157 0 0 0
N4723 1.427 1.200 0 0 0
N4724 2.466 1.040 0 0 0
N4726 2.440 0.900 0 0 0
N4728 2.796 0.750 0 0 0
N4730 3.267 0.750 0 0 0
N4732 2.533 1.100 0 0 0
N4733 2.512 1.100 0 0 0
N4735 2.336 0.900 0 0 0
N4737 2.312 0.650 0 0 0
N4739 2.433 0.900 0 0 0
N4741 1.877 1.200 0 0 0
N4743 2.568 0.600 0 0 0
N4745 2.009 1.506 0 0 0
N4747 2.241 1.300 0 0 0
N4749 2.187 1.450 0 0 0
N4751 2.742 0.750 0 0 0
N4753 3.591 0.600 0 0 0
N4755 5.361 0.800 0 0 0
N4756 5.013 1.048 0 0 0
N4758 2.665 0.930 0 0 0
N4760 2.409 0.450 0 0 0
N4762 1.984 0.620 0 0 0
N4764 1.971 0.500 0 0 0
N4766 2.296 0.710 0 0 0
N4768 1.824 0.740 0 0 0
N4770 3.083 0.450 0 0 0
N4771 2.818 0.450 0 0 0
N4773 3.601 0.900 0 0 0
N4774 2.862 0.900 0 0 0
N4776 2.105 0.850 0 0 0
N4778 1.292 1.250 0 0 0
N4779 1.006 1.250 0 0 0
N4780 1.349 1.120 0 0 0
N4781 0.220 2.552 0 0 0
N4783 1.832 1.070 0 0 0
N4785 1.405 0.950 0 0 0
N4787 0.631 2.033 0 0 0
N4789 4.195 0.630 0 0 0
N4790 4.173 0.650 0 0 0
N4791 4.195 0.841 0 0 0
N4792 1.417 0.950 0 0 0
N4793 1.960 1.570 0 0 0
N4795 2.388 1.180 0 0 0
N4796 2.790 1.040 0 0 0
N4797 2.773 1.450 0 0 0
N4800 2.573 0.650 0 0 0
N4801 1.442 1.599 0 0 0
N4803 1.971 0.800 0 0 0
N4806 3.696 0.750 0 0 0
N4808 3.986 0.830 0 0 0
N4809 3.008 1.628 0 0 0
N4810 2.950 0.720 0 0 0
N4811 2.298 0.950 0 0 0
N4813 3.273 0.950 0 0 0
N4815 2.529 0.750 0 0 0
N4819 9.439 0.900 0 0 0
N4821 9.517 0.900 0 0 0
N4823 10.064 0.600 0 0 0
N4825 3.197 1.470 0 0 0
N4827 2.684 1.560 0 0 0
N4828 3.123 1.260 0 0 0
N4830 3.192 1.020 0 0 0
N4832 3.147 1.687 0 0 0
N4834 3.077 0.890 0 0 0
N4836 3.087 0.870 0 0 0
N4838 4.031 1.120 0 0 0
N4839 3.794 1.230 0 0 0
N4841 3.852 0.940 0 0 0
N4844 2.662 1.452 0 0 0
N4846 3.182 1.000 0 0 0
N4848 3.338 0.980 0 0 0
N4851 3.491 0.790 0 0 0
N4853 3.837 0.850 0 0 0
N4855 2.963 1.050 0 0 0
N4857 3.184 1.120 0 0 0
N4859 3.274 1.620 0 0 0
N4861 3.123 1.250 0 0 0
N4863 2.086 2.996 0 0 0
N4864 3.371 1.531 0 0 0
N4865 3.620 1.260 0 0 0
N4867 2.811 1.210 0 0 0
N4869 3.198 1.530 0 0 0
N4871 4.286 0.890 0 0 0
N4872 2.355 1.030 0 0 0
N4873 3.024 1.280 0 0 0
N4874 2.968 1.000 0 0 0
N4876 3.435 1.300 0 0 0
N4878 3.406 1.110 0 0 0
N4881 4.063 0.760 0 0 0
N4883 4.686 0.750 0 0 0
N4885 3.452 0.700 0 0 0
N4886 3.194 0.720 0 0 0
N4887 3.862 0.720 0 0 0
N4888 4.162 0.750 0 0 0
N4890 2.569 0.940 0 0 0
N4892 4.115 0.790 0 0 0
N4893 4.025 0.790 0 0 0
N4894 3.895 0.932 0 0 0
N4895 3.958 0.900 0 0 0
N4896 4.425 0.670 0 0 0
N4898 3.895 0.950 0 0 0
N4899 4.752 0.950 0 0 0
N4900 4.707 1.000 0 0 0
N4902 4.856 0.990 0 0 0
N4904 5.502 1.010 0 0 0
N4906 4.639 0.700 0 0 0
N4908 4.362 0.930 0 0 0
N4909 3.030 2.212 0 0 0
N4910 2.185 3.617 0 0 0
N4911 4.385 2.267 0 0 0
N4912 4.245 1.380 0 0 0
N4914 4.572 1.330 0 0 0
N4915 4.526 1.330 0 0 0
N4917 4.471 1.099 0 0 0
N4918 3.628 1.883 0 0 0
N4921 2.185 4.217 0 0 0
N4923 4.682 0.760 0 0 0
N4925 3.938 1.440 0 0 0
N4927 4.474 1.230 0 0 0
N4929 3.989 1.090 0 0 0
N4931 5.931 1.220 0 0 0
N4933 5.458 0.670 0 0 0
N4935 5.657 0.910 0 0 0
N4937 3.499 1.125 0 0 0
N4939 3.596 2.143 0 0 0
N4941 4.231 0.940 0 0 0
N4942 3.586 0.940 0 0 0
N4943 4.380 0.940 0 0 0
N4945 3.715 1.120 0 0 0
N4946 4.291 1.120 0 0 0
N4947 3.825 0.930 0 0 0
N4949 4.919 0.730 0 0 0
N4950 4.637 1.060 0 0 0
N4951 3.966 1.441 0 0 0
N4953 5.197 0.950 0 0 0
N4955 4.083 0.850 0 0 0
N4957 4.329 0.930 0 0 0
N4959 3.733 0.660 0 0 0
N4961 3.815 0.640 0 0 0
N4963 3.561 0.810 0 0 0
N4965 5.004 0.940 0 0 0
N4967 5.313 1.280 0 0 0
N4969 5.643 1.230 0 0 0
N4971 4.054 0.670 0 0 0
N4973 3.189 0.740 0 0 0
N4975 3.710 0.970 0 0 0
N4977 4.445 1.000 0 0 0
N4978 3.944 0.750 0 0 0
N4979 4.637 1.090 0 0 0
N4980 4.533 0.740 0 0 0
N4981 10.658 1.140 0 0 0
N4982 9.983 1.208 0 0 0
N4983 11.738 1.090 0 0 0
N4985 10.524 1.200 0 0 0
N4987 10.781 0.910 0 0 0
N4988 10.524 0.920 0 0 0
N4989 11.218 1.040 0 0 0
N4990 10.660 1.508 0 0 0
N4991 11.128 1.050 0 0 0
N4992 11.052 1.130 0 0 0
N4994 11.440 0.990 0 0 0
N4995 10.935 1.157 0 0 0
N4996 11.306 1.100 0 0 0
N4997 10.989 1.170 0 0 0
N4998 11.002 1.528 0 0 0
N4999 10.850 1.490 0 0 0
N5001 11.325 1.000 0 0 0
N5003 11.214 0.650 0 0 0
N5005 10.925 0.990 0 0 0
N5007 10.754 1.330 0 0 0
N5009 10.365 0.790 0 0 0
N5011 10.830 0.980 0 0 0
N5012 10.597 1.781 0 0 0
N5013 11.026 0.810 0 0 0
N5014 10.843 1.263 0 0 0
N5015 10.618 1.100 0 0 0
N5017 10.254 1.090 0 0 0
N5019 10.186 0.850 0 0 0
N5021 10.761 0.840 0 0 0
N5023 12.302 1.040 0 0 0
N5025 10.802 0.930 0 0 0
N5026 10.143 1.128 0 0 0
N5028 10.986 0.790 0 0 0
N5030 10.444 1.060 0 0 0
N5032 10.557 0.610 0 0 0
N5033 10.402 0.930 0 0 0
N5034 9.632 1.510 0 0 0
N5035 8.750 2.074 0 0 0
N5036 10.548 0.850 0 0 0
N5039 11.314 1.130 0 0 0
N5041 9.625 1.350 0 0 0
N5042 10.676 1.600 0 0 0
N5044 11.155 0.980 0 0 0
N5048 10.948 1.130 0 0 0
N5049 10.895 1.130 0 0 0
N5050 10.963 0.930 0 0 0
N5052 9.571 1.300 0 0 0
N5054 9.744 1.200 0 0 0
N5056 10.525 1.000 0 0 0
N5058 10.250 0.700 0 0 0
N5061 9.035 1.400 0 0 0
N5062 7.161 1.050 0 0 0
N5064 7.247 0.970 0 0 0
N5066 7.274 0.970 0 0 0
N5068 7.392 1.120 0 0 0
N5069 6.524 1.850 0 0 0
N5070 7.432 0.920 0 0 0
N5071 6.852 1.060 0 0 0
N5072 6.226 1.749 0 0 0
N5073 6.801 0.900 0 0 0
N5075 7.020 1.100 0 0 0
N5077 7.178 1.100 0 0 0
N5079 7.084 0.950 0 0 0
N5080 6.806 1.435 0 0 0
N5081 6.981 0.990 0 0 0
N5084 6.998 0.870 0 0 0
N5085 6.305 1.060 0 0 0
N5087 6.763 1.100 0 0 0
N5089 6.498 0.920 0 0 0
N5091 6.588 1.150 0 0 0
N5092 6.434 1.150 0 0 0
N5093 6.440 0.860 0 0 0
N5094 5.654 1.804 0 0 0
N5095 5.654 1.180 0 0 0
N5096 6.751 0.880 0 0 0
N5098 6.464 0.870 0 0 0
N5100 6.686 0.930 0 0 0
N5102 6.605 0.950 0 0 0
N5104 7.089 0.620 0 0 0
N5106 6.773 0.910 0 0 0
N5108 6.773 0.920 0 0 0
N5110 6.828 0.990 0 0 0
N5112 6.928 0.950 0 0 0
N5114 6.781 0.930 0 0 0
N5116 7.305 1.050 0 0 0
N5118 7.175 0.720 0 0 0
N5120 6.692 0.950 0 0 0
N5122 6.796 1.050 0 0 0
N5124 7.163 1.220 0 0 0
N5128 7.146 0.990 0 0 0
N5130 7.021 1.080 0 0 0
N5132 7.331 1.090 0 0 0
N5134 7.089 1.200 0 0 0
N5135 6.186 1.200 0 0 0
N5137 6.017 1.110 0 0 0
N5138 4.197 3.309 0 0 0
N5140 7.063 1.210 0 0 0
N5141 6.437 2.301 0 0 0
N5143 5.891 3.145 0 0 0
N5145 6.791 1.216 0 0 0
N5146 6.644 1.350 0 0 0
N5148 5.605 1.320 0 0 0
N5149 6.453 1.280 0 0 0
N5151 6.485 1.220 0 0 0
N5153 6.222 1.090 0 0 0
N5155 5.937 1.070 0 0 0
N5157 5.823 1.320 0 0 0
N5158 5.558 1.080 0 0 0
N5160 4.933 1.330 0 0 0
N5162 4.743 1.290 0 0 0
N5164 5.187 1.210 0 0 0
N5166 5.811 1.240 0 0 0
N5168 5.880 1.040 0 0 0
N5170 6.177 0.950 0 0 0
N5171 5.910 1.343 0 0 0
N5172 5.968 1.300 0 0 0
N5173 6.855 1.570 0 0 0
N5174 6.518 1.280 0 0 0
N5175 5.899 2.555 0 0 0
N5177 5.517 2.261 0 0 0
N5178 6.476 1.180 0 0 0
N5180 6.069 1.380 0 0 0
N5182 6.001 1.690 0 0 0
N5183 4.991 1.690 0 0 0
N5184 5.672 0.670 0 0 0
N5185 4.880 1.230 0 0 0
N5186 4.583 1.230 0 0 0
N5187 4.518 2.711 0 0 0
N5189 6.144 1.000 0 0 0
N5191 5.205 1.480 0 0 0
N5193 5.466 1.660 0 0 0
N5195 5.315 0.910 0 0 0
N5197 5.010 0.990 0 0 0
N5199 6.520 0.720 0 0 0
N5200 4.869 1.837 0 0 0
N5201 4.869 2.307 0 0 0
N5203 6.201 0.950 0 0 0
N5205 5.456 1.140 0 0 0
N5207 4.531 0.920 0 0 0
N5209 6.058 0.790 0 0 0
N5211 5.229 0.680 0 0 0
N5213 4.555 0.960 0 0 0
N5215 4.646 1.130 0 0 0
N5217 3.875 1.500 0 0 0
N5219 4.701 1.220 0 0 0
N5221 4.647 1.280 0 0 0
N5222 3.808 1.280 0 0 0
N5224 4.293 0.790 0 0 0
N5226 6.469 0.770 0 0 0
N5228 5.066 1.130 0 0 0
N5230 4.989 1.140 0 0 0
N5231 6.082 1.130 0 0 0
N5233 4.472 1.040 0 0 0
N5235 5.689 1.600 0 0 0
N5237 7.348 0.980 0 0 0
N5239 6.142 1.040 0 0 0
N5241 3.941 1.180 0 0 0
N5243 5.745 1.260 0 0 0
N5246 5.756 1.050 0 0 0
N5247 5.945 1.290 0 0 0
N5249 4.822 1.220 0 0 0
N5251 8.303 1.170 0 0 0
N5253 7.445 1.190 0 0 0
N5256 5.130 1.673 0 0 0
N5257 5.918 0.960 0 0 0
N5259 9.822 0.980 0 0 0
N5261 6.736 0.900 0 0 0
N5263 11.308 1.670 0 0 0
N5265 12.289 1.380 0 0 0
N5267 12.005 1.110 0 0 0
N5269 11.469 1.480 0 0 0
N5271 11.905 1.460 0 0 0
N5273 11.824 1.320 0 0 0
N5275 11.889 1.250 0 0 0
N5277 11.822 1.340 0 0 0
N5279 11.969 1.040 0 0 0
N5280 11.601 1.120 0 0 0
N5282 12.497 0.790 0 0 0
N5283 11.283 2.084 0 0 0
N5284 11.753 0.930 0 0 0
N5286 12.099 1.030 0 0 0
N5287 11.930 1.041 0 0 0
N5288 11.949 1.000 0 0 0
N5289 11.449 1.600 0 0 0
N5290 12.559 0.620 0 0 0
N5292 11.896 1.060 0 0 0
N5294 11.814 1.040 0 0 0
N5296 11.696 1.140 0 0 0
N5298 11.891 0.940 0 0 0
N5300 11.342 1.160 0 0 0
N5302 11.790 1.170 0 0 0
N5304 11.776 0.870 0 0 0
N5306 11.776 1.030 0 0 0
N5308 12.497 0.970 0 0 0
N5310 12.044 0.860 0 0 0
N5312 11.955 1.240 0 0 0
N5314 12.576 0.890 0 0 0
N5315 12.559 0.890 0 0 0
N5316 12.576 1.109 0 0 0
N5318 12.094 1.010 0 0 0
N5320 12.258 0.610 0 0 0
N5322 12.099 0.890 0 0 0
N5323 11.780 1.220 0 0 0
N5325 11.895 1.030 0 0 0
N5327 12.767 0.630 0 0 0
N5330 11.811 1.010 0 0 0
N5332 12.758 1.160 0 0 0
N5334 12.456 1.100 0 0 0
N5335 11.977 1.390 0 0 0
N5336 12.848 0.850 0 0 0
N5338 12.606 0.980 0 0 0
N5340 14.174 0.600 0 0 0
N5342 13.906 1.430 0 0 0
N5344 12.289 1.040 0 0 0
N5346 12.182 1.050 0 0 0
N5348 12.456 1.390 0 0 0
N5349 11.819 1.080 0 0 0
N5351 12.289 0.800 0 0 0
N5353 12.943 0.690 0 0 0
N5355 11.936 1.080 0 0 0
N5357 11.820 0.460 0 0 0
N5360 12.142 0.940 0 0 0
N5362 11.211 0.900 0 0 0
N5364 11.674 0.930 0 0 0
N5366 11.153 1.080 0 0 0
N5368 10.960 1.230 0 0 0
N5370 11.468 1.080 0 0 0
N5372 11.726 0.910 0 0 0
N5374 11.756 1.070 0 0 0
N5376 11.259 0.820 0 0 0
N5378 11.280 0.920 0 0 0
N5379 10.872 0.920 0 0 0
N5380 11.495 0.760 0 0 0
N5381 12.019 0.540 0 0 0
N5383 11.350 0.710 0 0 0
N5385 11.016 0.990 0 0 0
N5388 11.046 0.810 0 0 0
N5389 11.175 0.960 0 0 0
N5390 10.552 1.243 0 0 0
N5391 10.617 0.990 0 0 0
N5392 12.108 0.710 0 0 0
N5394 10.629 0.990 0 0 0
N5395 11.144 1.430 0 0 0
N5397 10.803 0.830 0 0 0
N5399 10.660 1.070 0 0 0
N5401 11.519 1.190 0 0 0
N5402 10.624 1.190 0 0 0
N5404 11.086 1.020 0 0 0
N5406 10.786 1.070 0 0 0
N5408 10.864 0.940 0 0 0
N5410 11.292 0.740 0 0 0
N5412 10.858 1.040 0 0 0
N5415 11.438 0.660 0 0 0
N5417 10.818 1.510 0 0 0
N5418 12.109 0.960 0 0 0
N5420 13.002 0.760 0 0 0
N5421 12.917 0.760 0 0 0
N5424 12.477 1.280 0 0 0
N5426 11.370 1.260 0 0 0
N5428 11.094 2.210 0 0 0
N5430 12.563 1.810 0 0 0
N5431 11.026 3.122 0 0 0
N5433 12.695 0.790 0 0 0
N5435 13.019 0.750 0 0 0
N5437 13.303 0.490 0 0 0
N5439 13.282 0.600 0 0 0
N5441 12.956 0.670 0 0 0
N5443 12.837 0.800 0 0 0
N5445 12.120 0.840 0 0 0
N5447 12.005 1.040 0 0 0
N5448 11.826 1.499 0 0 0
N5450 12.746 0.440 0 0 0
N5452 12.185 1.060 0 0 0
N5454 12.306 1.610 0 0 0
N5456 13.150 1.140 0 0 0
N5458 12.640 0.960 0 0 0
N5460 12.815 0.750 0 0 0
N5461 12.738 0.750 0 0 0
N5463 13.109 1.340 0 0 0
N5465 12.797 1.410 0 0 0
N5467 12.609 1.100 0 0 0
N5469 12.285 1.170 0 0 0
N5471 12.840 1.410 0 0 0
N5472 11.627 2.581 0 0 0
N5473 12.612 1.080 0 0 0
N5475 13.091 1.090 0 0 0
N5477 12.396 0.970 0 0 0
N5479 12.994 0.680 0 0 0
N5481 13.649 0.370 0 0 0
N5483 13.623 0.300 0 0 0
N5485 13.837 0.700 0 0 0
N5487 13.058 0.950 0 0 0
N5489 14.018 0.420 0 0 0
N5491 13.809 0.340 0 0 0
N5493 13.723 0.420 0 0 0
N5496 9.328 2.889 0 0 0
N5497 9.011 1.665 0 0 0
N5499 10.094 0.960 0 0 0
N5500 9.661 1.373 0 0 0
N5501 9.470 1.202 0 0 0
N5502 9.501 1.168 0 0 0
N5505 9.310 1.378 0 0 0
N5506 9.525 0.680 0 0 0
N5508 8.851 1.240 0 0 0
N5510 10.480 0.530 0 0 0
N5512 10.337 0.700 0 0 0
N5514 11.368 0.960 0 0 0
N5516 10.350 0.810 0 0 0
N5518 11.199 1.110 0 0 0
N5519 10.477 1.649 0 0 0
N5520 11.760 0.800 0 0 0
N5522 11.016 0.980 0 0 0
N5523 12.192 0.490 0 0 0
N5525 12.093 0.850 0 0 0
N5528 12.093 0.700 0 0 0
N5530 12.232 0.760 0 0 0
N5532 11.596 1.060 0 0 0
N5534 12.282 0.860 0 0 0
N5536 11.564 1.050 0 0 0
N5539 11.203 0.810 0 0 0
N5540 10.635 1.040 0 0 0
N5541 9.902 1.317 0 0 0
N5542 9.902 2.157 0 0 0
N5543 9.564 1.766 0 0 0
N5545 11.301 0.690 0 0 0
N5547 10.699 0.690 0 0 0
N5549 10.701 1.160 0 0 0
N5551 10.236 1.000 0 0 0
N5555 10.028 1.210 0 0 0
N5556 7.705 2.710 0 0 0
N5557 10.407 0.810 0 0 0
N5559 10.175 0.820 0 0 0
N5561 10.360 0.540 0 0 0
N5562 7.844 3.056 0 0 0
N5563 10.467 0.620 0 0 0
N5566 8.449 0.820 0 0 0
N5567 8.297 1.632 0 0 0
N5568 8.297 2.679 0 0 0
N5569 9.074 1.320 0 0 0
N5571 8.653 0.950 0 0 0
N5573 5.709 0.650 0 0 0
N5575 5.448 1.140 0 0 0
N5576 5.412 2.002 0 0 0
N5577 5.448 2.866 0 0 0
N5579 8.727 0.880 0 0 0
N5582 8.641 0.880 0 0 0
N5583 10.288 0.640 0 0 0
N5585 11.019 0.660 0 0 0
N5586 7.844 3.692 0 0 0
N5588 10.745 1.020 0 0 0
N5590 10.607 0.960 0 0 0
N5592 11.121 1.080 0 0 0
N5594 11.539 1.020 0 0 0
N5595 10.982 1.159 0 0 0
N5597 11.830 0.330 0 0 0
N5599 11.836 0.240 0 0 0
N5601 10.485 2.070 0 0 0
N5603 11.615 1.120 0 0 0
N5605 11.414 1.020 0 0 0
N5607 11.948 0.990 0 0 0
N5609 11.915 0.450 0 0 0
N5611 10.643 1.808 0 0 0
N5613 11.558 0.890 0 0 0
N5615 11.057 1.170 0 0 0
N5616 10.915 1.170 0 0 0
N5617 11.504 0.660 0 0 0
N5618 11.831 0.760 0 0 0
N5620 11.441 1.190 0 0 0
N5622 11.576 0.480 0 0 0
N5624 11.810 1.260 0 0 0
N5625 10.948 1.740 0 0 0
N5626 9.748 2.060 0 0 0
N5627 10.372 2.060 0 0 0
N5628 11.018 1.270 0 0 0
N5630 9.710 0.470 0 0 0
N5631 10.569 0.910 0 0 0
N5632 11.472 0.300 0 0 0
N5634 11.811 0.340 0 0 0
N5637 12.783 0.240 0 0 0
N5638 14.320 0.430 0 0 0
N5640 12.075 0.290 0 0 0
N5642 12.091 0.660 0 0 0
N5644 9.671 0.670 0 0 0
N5646 9.915 0.580 0 0 0
N5648 9.907 0.700 0 0 0
N5650 10.808 0.670 0 0 0
N5652 10.416 0.720 0 0 0
N5654 10.243 0.820 0 0 0
N5656 10.505 0.720 0 0 0
N5657 10.097 1.252 0 0 0
N5658 10.097 2.664 0 0 0
N5660 9.671 1.210 0 0 0
N5661 8.045 1.210 0 0 0
N5662 8.126 1.310 0 0 0
N5664 10.048 0.720 0 0 0
N5666 8.951 1.010 0 0 0
N5668 9.908 1.070 0 0 0
N5670 8.958 0.970 0 0 0
N5672 10.860 0.810 0 0 0
N5674 12.263 0.480 0 0 0
N5675 11.722 1.578 0 0 0
N5677 12.119 0.780 0 0 0
N5679 8.687 1.100 0 0 0
N5681 3.382 9.952 0 0 0
N5683 7.384 8.412 0 0 0
N5685 8.241 2.370 0 0 0
N5687 8.181 2.030 0 0 0
N5688 12.287 1.130 0 0 0
N5689 12.088 2.035 0 0 0
N5690 12.088 3.196 0 0 0
N5692 13.303 0.680 0 0 0
N5693 11.784 2.408 0 0 0
N5695 13.633 0.690 0 0 0
N5697 13.352 0.490 0 0 0
N5700 12.719 1.217 0 0 0
N5701 11.733 1.352 0 0 0
N5702 11.733 1.392 0 0 0
N5703 12.514 0.390 0 0 0
N5705 13.522 0.430 0 0 0
N5707 12.719 0.690 0 0 0
N5709 15.096 0.840 0 0 0
N5710 13.755 0.470 0 0 0
N5712 14.806 0.440 0 0 0
N5714 13.243 0.620 0 0 0
N5715 12.417 0.710 0 0 0
N5717 11.752 0.832 0 0 0
N5719 12.478 0.420 0 0 0
N5720 12.314 0.410 0 0 0
N5721 11.609 0.553 0 0 0
N5722 12.419 0.240 0 0 0
N5723 12.289 0.590 0 0 0
N5726 13.032 0.370 0 0 0
N5727 12.911 0.580 0 0 0
N5729 12.809 0.640 0 0 0
N5731 14.392 0.770 0 0 0
N5736 11.617 0.724 0 0 0
N5738 15.096 0.700 0 0 0
N5739 8.181 1.300 0 0 0
N5740 14.195 0.700 0 0 0
N5742 13.288 0.590 0 0 0
N5744 13.208 0.690 0 0 0
N5746 13.295 1.240 0 0 0
N5748 13.407 0.860 0 0 0
N5750 13.108 1.230 0 0 0
N5752 13.585 0.810 0 0 0
N5753 13.029 1.366 0 0 0
N5755 12.613 0.740 0 0 0
N5756 12.166 1.207 0 0 0
N5757 13.449 0.867 0 0 0
N5759 13.449 0.867 0 0 0
N5761 14.164 0.360 0 0 0
N5763 13.675 0.570 0 0 0
N5765 12.855 0.710 0 0 0
N5766 8.730 1.882 0 0 0
N5767 12.279 0.780 0 0 0
N5769 12.805 0.900 0 0 0
N5771 12.822 0.870 0 0 0
N5773 11.876 0.780 0 0 0
N5775 13.096 0.700 0 0 0
N5777 13.361 0.890 0 0 0
N5779 13.853 0.720 0 0 0
N5781 11.984 0.767 0 0 0
N5783 12.888 0.650 0 0 0
N5785 11.260 0.590 0 0 0
N5787 12.053 0.830 0 0 0
N5789 13.095 0.680 0 0 0
N5791 12.106 0.620 0 0 0
N5793 10.771 0.610 0 0 0
N5795 11.094 0.510 0 0 0
N5797 11.074 0.740 0 0 0
N5799 12.486 0.900 0 0 0
N5801 9.752 1.310 0 0 0
N5802 8.150 1.467 0 0 0
N5804 8.938 1.100 0 0 0
N5806 9.052 0.500 0 0 0
N5808 8.565 0.660 0 0 0
N5810 10.237 0.870 0 0 0
N5811 9.017 1.040 0 0 0
N5813 9.137 0.770 0 0 0
N5815 8.823 0.790 0 0 0
N5817 11.816 0.890 0 0 0
N5819 10.981 0.990 0 0 0
N5820 9.934 1.675 0 0 0
N5821 10.229 0.770 0 0 0
N5823 9.550 0.710 0 0 0
N5825 10.218 0.700 0 0 0
N5827 10.824 0.630 0 0 0
N5829 10.567 0.890 0 0 0
N5831 10.011 0.810 0 0 0
N5832 9.410 1.701 0 0 0
N5834 10.104 0.980 0 0 0
N5837 11.563 0.670 0 0 0
N5840 12.784 0.650 0 0 0
N5841 13.006 0.490 0 0 0
N5843 12.784 0.670 0 0 0
N5845 10.315 0.840 0 0 0
N5847 9.286 1.000 0 0 0
N5849 9.902 1.050 0 0 0
N5850 9.107 0.830 0 0 0
N5851 8.924 3.620 0 0 0
N5853 9.690 0.640 0 0 0
N5855 10.039 0.600 0 0 0
N5856 10.822 0.840 0 0 0
N5858 10.382 0.770 0 0 0
N5860 10.681 0.680 0 0 0
N5862 9.528 0.730 0 0 0
N5864 8.611 0.910 0 0 0
N5866 8.507 0.770 0 0 0
N5868 8.658 0.740 0 0 0
N5870 8.606 0.820 0 0 0
N5872 7.245 2.202 0 0 0
N5874 7.704 0.760 0 0 0
N5875 6.934 1.368 0 0 0
N5876 7.900 0.750 0 0 0
N5878 7.821 0.790 0 0 0
N5879 8.032 0.820 0 0 0
N5881 7.960 0.830 0 0 0
N5883 7.061 0.850 0 0 0
N5885 7.086 0.690 0 0 0
N5887 7.021 0.720 0 0 0
N5889 7.031 0.770 0 0 0
N5892 7.181 0.760 0 0 0
N5893 7.586 0.670 0 0 0
N5895 7.349 0.930 0 0 0
N5897 8.036 0.800 0 0 0
N5898 7.780 1.017 0 0 0
N5900 6.985 0.880 0 0 0
N5902 6.606 1.000 0 0 0
N5904 6.437 0.800 0 0 0
N5906 7.444 0.870 0 0 0
N5907 5.953 0.902 0 0 0
N5909 5.962 0.740 0 0 0
N5910 5.055 0.962 0 0 0
N5911 5.663 1.020 0 0 0
N5912 5.633 1.020 0 0 0
N5913 5.406 2.853 0 0 0
N5915 6.637 0.830 0 0 0
N5917 6.669 0.660 0 0 0
N5919 5.513 0.840 0 0 0
N5921 5.713 0.680 0 0 0
N5923 5.476 0.770 0 0 0
N5925 5.486 0.880 0 0 0
N5927 6.431 0.670 0 0 0
N5929 6.489 0.630 0 0 0
N5931 6.009 0.680 0 0 0
N5933 5.896 0.570 0 0 0
N5935 6.337 0.940 0 0 0
N5937 7.575 0.850 0 0 0
N5939 7.985 0.940 0 0 0
N5941 6.375 0.850 0 0 0
N5943 6.690 0.870 0 0 0
N5945 6.518 0.810 0 0 0
N5947 6.593 0.680 0 0 0
N5949 6.639 0.710 0 0 0
N5951 7.035 1.359 0 0 0
N5952 8.191 0.630 0 0 0
N5953 7.464 0.810 0 0 0
N5954 9.117 0.640 0 0 0
N5957 8.240 0.730 0 0 0
N5958 8.528 0.690 0 0 0
N5960 6.943 0.730 0 0 0
N5962 7.735 0.730 0 0 0
N5964 6.305 0.820 0 0 0
N5966 6.501 0.550 0 0 0
N5968 7.680 0.710 0 0 0
N5970 7.124 0.850 0 0 0
N5972 7.679 0.790 0 0 0
N5974 9.057 0.760 0 0 0
N5975 8.057 0.770 0 0 0
N5977 5.453 0.780 0 0 0
N5979 5.132 0.810 0 0 0
N5983 14.140 0.540 0 0 0
N5985 13.332 0.680 0 0 0
N5986 12.072 0.680 0 0 0
N5987 12.231 0.560 0 0 0
N5988 13.702 0.660 0 0 0
N5989 9.145 1.449 0 0 0
N5990 10.980 0.840 0 0 0
N5992 10.983 0.640 0 0 0
N5994 11.087 0.650 0 0 0
N5997 11.118 0.590 0 0 0
N5998 10.912 1.116 0 0 0
N5999 11.722 0.660 0 0 0
N6002 12.690 1.050 0 0 0
N6004 11.723 0.770 0 0 0
N6006 12.168 0.600 0 0 0
N6008 13.409 0.600 0 0 0
N6010 12.747 0.950 0 0 0
N6012 10.822 0.970 0 0 0
N6014 10.819 1.200 0 0 0
N6016 10.759 1.060 0 0 0
N6017 10.331 1.370 0 0 0
N6018 11.415 1.370 0 0 0
N6019 10.681 0.900 0 0 0
N6021 11.700 0.640 0 0 0
N6023 12.114 0.780 0 0 0
N6025 10.543 0.740 0 0 0
N6027 10.554 0.630 0 0 0
N6029 10.450 0.650 0 0 0
N6031 10.834 0.770 0 0 0
N6033 9.681 0.740 0 0 0
N6035 9.240 0.670 0 0 0
N6037 10.066 0.780 0 0 0
N6038 9.270 1.476 0 0 0
N6039 10.229 0.680 0 0 0
N6040 10.311 0.990 0 0 0
N6042 10.071 1.010 0 0 0
N6044 9.514 0.820 0 0 0
N6046 9.355 1.240 0 0 0
N6048 9.557 0.850 0 0 0
N6050 11.670 1.280 0 0 0
N6051 8.284 1.280 0 0 0
N6052 13.266 0.780 0 0 0
N6053 8.591 0.890 0 0 0
N6055 13.873 1.250 0 0 0
N6057 13.420 0.780 0 0 0
N6059 13.424 0.830 0 0 0
N6061 13.178 0.960 0 0 0
N6063 13.925 0.780 0 0 0
N6065 13.728 0.750 0 0 0
N6067 13.857 0.730 0 0 0
N6069 13.055 1.000 0 0 0
N6072 12.961 0.510 0 0 0
N6074 13.626 0.810 0 0 0
N6076 13.536 1.060 0 0 0
N6078 13.363 0.760 0 0 0
N6080 12.814 0.890 0 0 0
N6082 12.998 1.120 0 0 0
N6084 12.679 0.740 0 0 0
N6085 12.623 4.746 0 0 0
N6087 12.588 0.390 0 0 0
N6089 12.396 0.640 0 0 0
N6091 12.427 0.820 0 0 0
N6093 12.972 0.750 0 0 0
N6094 13.347 0.720 0 0 0
N6095 12.659 0.800 0 0 0
N6097 12.588 0.740 0 0 0
N6098 10.613 1.089 0 0 0
N6099 11.894 0.660 0 0 0
N6101 11.693 0.590 0 0 0
N6103 11.529 0.730 0 0 0
N6104 11.372 1.347 0 0 0
N6105 10.826 1.190 0 0 0
N6107 11.007 0.730 0 0 0
N6109 10.883 0.930 0 0 0
N6110 12.801 0.640 0 0 0
N6111 11.906 0.687 0 0 0
N6113 13.032 0.770 0 0 0
N6114 10.516 0.770 0 0 0
N6115 11.080 0.830 0 0 0
N6117 10.545 0.740 0 0 0
N6118 10.327 1.220 0 0 0
N6119 10.247 1.220 0 0 0
N6120 9.224 1.850 0 0 0
N6121 8.131 2.342 0 0 0
N6122 9.854 0.710 0 0 0
N6124 9.587 1.150 0 0 0
N6126 10.134 0.880 0 0 0
N6127 10.024 0.740 0 0 0
N6129 10.053 0.830 0 0 0
N6131 10.124 0.800 0 0 0
N6133 13.158 0.770 0 0 0
N6134 10.770 0.910 0 0 0
N6135 11.730 0.920 0 0 0
N6137 12.478 0.930 0 0 0
N6138 10.878 1.300 0 0 0
N6139 12.294 0.780 0 0 0
N6140 10.700 1.293 0 0 0
N6141 11.966 0.620 0 0 0
N6143 11.581 0.660 0 0 0
N6145 10.866 0.750 0 0 0
N6147 10.787 0.480 0 0 0
N6149 10.853 0.640 0 0 0
N6151 11.181 0.890 0 0 0
N6153 10.933 0.740 0 0 0
N6157 10.499 0.920 0 0 0
N6160 10.769 0.790 0 0 0
N6161 10.314 1.490 0 0 0
N6163 10.808 0.760 0 0 0
N6165 10.837 0.910 0 0 0
N6166 10.037 1.310 0 0 0
N6168 10.291 1.230 0 0 0
N6170 10.216 0.650 0 0 0
N6172 10.004 0.680 0 0 0
N6174 9.978 0.750 0 0 0
N6176 9.533 0.960 0 0 0
N6177 9.648 0.450 0 0 0
N6178 11.346 0.640 0 0 0
N6180 13.418 0.640 0 0 0
N6182 12.289 0.640 0 0 0
N6183 11.338 2.838 0 0 0
N6185 9.629 0.850 0 0 0
N6186 9.571 1.171 0 0 0
N6188 10.297 0.740 0 0 0
N6190 9.951 0.830 0 0 0
N6191 9.260 0.830 0 0 0
N6192 9.937 0.940 0 0 0
N6194 10.024 0.620 0 0 0
N6196 9.623 0.420 0 0 0
N6197 9.210 0.860 0 0 0
N6199 9.895 0.950 0 0 0
N6201 10.173 1.190 0 0 0
N6203 10.002 0.780 0 0 0
N6205 9.457 0.990 0 0 0
N6207 9.279 0.870 0 0 0
N6208 8.095 0.870 0 0 0
N6209 9.418 1.030 0 0 0
N6211 9.018 0.920 0 0 0
N6212 8.334 1.872 0 0 0
N6214 8.299 0.820 0 0 0
N6215 8.968 0.510 0 0 0
N6217 9.296 0.680 0 0 0
N6219 12.619 0.720 0 0 0
N6220 11.798 0.900 0 0 0
N6222 11.708 0.770 0 0 0
N6224 11.054 0.770 0 0 0
N6226 8.426 1.090 0 0 0
N6228 10.124 0.720 0 0 0
N6230 10.063 0.929 0 0 0
N6232 10.063 1.269 0 0 0
N6234 10.594 0.610 0 0 0
N6236 9.892 0.820 0 0 0
N6237 9.098 1.631 0 0 0
N6239 10.219 0.750 0 0 0
N6241 13.327 0.680 0 0 0
N6242 13.168 1.301 0 0 0
N6244 11.097 0.840 0 0 0
N6246 11.036 0.730 0 0 0
N6248 11.292 0.740 0 0 0
N6249 10.302 2.053 0 0 0
N6251 13.638 0.810 0 0 0
N6252 11.654 2.674 0 0 0
N6253 11.372 0.850 0 0 0
N6254 10.774 3.172 0 0 0
N6256 12.404 0.650 0 0 0
N6258 11.804 0.960 0 0 0
N6260 9.556 0.530 0 0 0
N6262 9.729 0.710 0 0 0
N6265 9.841 0.550 0 0 0
N6267 9.915 0.500 0 0 0
N6269 9.448 0.710 0 0 0
N6271 9.004 0.770 0 0 0
N6273 8.923 0.630 0 0 0
N6275 8.464 0.620 0 0 0
N6277 9.915 0.520 0 0 0
N6279 8.656 0.670 0 0 0
N6281 9.015 0.650 0 0 0
N6282 8.749 0.966 0 0 0
N6283 7.521 1.350 0 0 0
N6284 9.161 0.490 0 0 0
N6286 7.945 0.490 0 0 0
N6288 8.679 0.710 0 0 0
N6290 8.522 0.680 0 0 0
N6292 8.632 0.750 0 0 0
N6294 8.313 0.640 0 0 0
N6297 8.489 0.690 0 0 0
N6298 8.357 0.480 0 0 0
N6300 9.089 0.490 0 0 0
N6302 9.371 0.580 0 0 0
N6304 8.834 0.580 0 0 0
N6306 9.807 0.640 0 0 0
N6308 9.426 0.400 0 0 0
N6309 9.122 1.444 0 0 0
N6310 7.170 1.745 0 0 0
N6311 8.039 0.700 0 0 0
N6313 8.208 0.660 0 0 0
N6316 8.982 0.400 0 0 0
N6318 8.189 0.330 0 0 0
N6320 7.747 0.390 0 0 0
N6322 7.784 0.540 0 0 0
N6324 8.161 0.560 0 0 0
N6326 8.298 0.560 0 0 0
N6328 8.445 0.700 0 0 0
N6330 8.720 0.590 0 0 0
N6332 8.803 0.480 0 0 0
N6333 8.270 1.045 0 0 0
N6334 8.183 0.520 0 0 0
N6336 8.466 0.320 0 0 0
N6338 8.250 0.550 0 0 0
N6339 8.109 0.550 0 0 0
N6340 9.768 0.530 0 0 0
N6342 8.732 0.420 0 0 0
N6343 8.728 0.740 0 0 0
N6345 7.355 0.550 0 0 0
N6347 7.266 0.400 0 0 0
N6349 8.363 1.430 0 0 0
N6351 8.710 0.670 0 0 0
N6353 8.730 0.400 0 0 0
N6355 8.361 0.380 0 0 0
N6357 8.015 0.700 0 0 0
N6359 8.723 0.710 0 0 0
N6361 7.599 0.830 0 0 0
N6363 8.028 0.570 0 0 0
N6365 7.217 0.680 0 0 0
N6367 8.332 0.680 0 0 0
N6369 6.523 0.530 0 0 0
N6371 7.938 0.700 0 0 0
N6372 6.489 0.700 0 0 0
N6373 6.235 0.760 0 0 0
N6374 3.217 3.680 0 0 0
N6375 5.234 1.008 0 0 0
N6376 7.053 0.750 0 0 0
N6378 6.610 0.490 0 0 0
N6380 8.679 1.030 0 0 0
N6382 8.914 1.070 0 0 0
N6384 7.523 1.260 0 0 0
N6386 9.053 0.780 0 0 0
N6388 9.429 0.610 0 0 0
N6390 6.725 0.670 0 0 0
N6392 6.961 0.590 0 0 0
N6394 9.171 0.370 0 0 0
N6396 9.492 0.550 0 0 0
N6398 9.100 0.710 0 0 0
N6399 7.019 2.811 0 0 0
N6401 7.039 0.740 0 0 0
N6403 7.409 0.744 0 0 0
N6404 6.383 0.710 0 0 0
N6405 6.195 0.780 0 0 0
N6407 6.392 0.670 0 0 0
N6408 4.232 0.949 0 0 0
N6410 4.495 0.720 0 0 0
N6411 4.232 1.341 0 0 0
N6413 4.687 0.460 0 0 0
N6415 7.049 0.510 0 0 0
N6417 4.388 1.707 0 0 0
N6419 7.621 0.670 0 0 0
N6421 5.055 0.350 0 0 0
N6423 5.201 0.620 0 0 0
N6425 5.759 0.720 0 0 0
N6426 5.138 3.794 0 0 0
N6427 6.277 0.470 0 0 0
N6429 7.140 0.360 0 0 0
N6431 8.232 0.540 0 0 0
N6434 5.802 0.400 0 0 0
N6435 5.839 0.470 0 0 0
N6437 5.623 0.450 0 0 0
N6439 4.620 0.990 0 0 0
N6441 7.261 1.090 0 0 0
N6443 4.802 0.590 0 0 0
N6445 4.504 0.860 0 0 0
N6447 4.707 0.330 0 0 0
N6449 6.724 0.390 0 0 0
N6451 6.654 1.200 0 0 0
N6453 7.177 0.680 0 0 0
N6454 6.359 0.975 0 0 0
N6455 7.174 0.720 0 0 0
N6456 6.208 1.612 0 0 0
N6457 6.448 2.593 0 0 0
N6458 6.512 1.338 0 0 0
N6459 6.512 1.278 0 0 0
N6460 7.052 0.430 0 0 0
N6462 6.663 0.420 0 0 0
N6464 4.067 0.400 0 0 0
N6466 5.316 0.570 0 0 0
N6468 4.472 0.610 0 0 0
N6471 3.869 0.700 0 0 0
N6473 3.926 0.400 0 0 0
N6474 4.983 0.710 0 0 0
N6476 4.277 0.520 0 0 0
N6478 4.144 0.650 0 0 0
N6480 4.144 0.560 0 0 0
N6482 5.013 0.840 0 0 0
N6484 2.549 2.071 0 0 0
N6485 3.336 2.217 0 0 0
N6486 3.222 1.010 0 0 0
N6488 2.549 1.672 0 0 0
N6490 5.010 0.680 0 0 0
N6491 4.730 0.870 0 0 0
N6492 3.675 0.870 0 0 0
N6494 3.052 0.730 0 0 0
N6497 3.660 1.543 0 0 0
N6498 2.963 0.830 0 0 0
N6499 2.669 0.830 0 0 0
N6500 2.289 1.230 0 0 0
N6501 3.381 1.240 0 0 0
N6503 3.325 1.230 0 0 0
N6504 4.837 0.730 0 0 0
N6506 3.480 0.710 0 0 0
N6507 3.143 1.330 0 0 0
N6508 3.408 1.330 0 0 0
N6509 4.810 0.470 0 0 0
N6510 3.821 0.930 0 0 0
N6512 4.326 0.560 0 0 0
N6513 4.164 0.650 0 0 0
N6514 4.378 0.650 0 0 0
N6515 4.549 0.750 0 0 0
N6517 4.940 0.860 0 0 0
N6519 5.332 0.550 0 0 0
N6522 4.260 0.600 0 0 0
N6523 2.965 1.230 0 0 0
N6525 3.029 1.030 0 0 0
N6526 2.695 1.050 0 0 0
N6528 2.602 1.210 0 0 0
N6529 1.686 2.186 0 0 0
N6530 2.602 1.640 0 0 0
N6531 1.467 3.546 0 0 0
N6533 3.120 0.710 0 0 0
N6535 2.700 0.800 0 0 0
N6536 8.250 0.460 0 0 0
N6538 4.897 0.780 0 0 0
N6541 3.336 0.995 0 0 0
N6542 9.148 1.070 0 0 0
N6543 5.025 1.570 0 0 0
N6545 3.992 0.520 0 0 0
N6550 3.685 1.518 0 0 0
N6552 6.856 1.300 0 0 0
N6554 7.689 0.900 0 0 0
N6556 6.898 1.200 0 0 0
N6558 6.869 0.900 0 0 0
N6560 5.876 0.900 0 0 0
N6562 7.689 1.200 0 0 0
N6564 9.658 0.900 0 0 0
N6566 7.236 0.900 0 0 0
N6568 7.658 1.500 0 0 0
N6570 7.698 1.900 0 0 0
N6572 6.417 0.900 0 0 0
N6574 6.992 1.100 0 0 0
N6576 6.536 1.100 0 0 0
N6578 7.551 0.900 0 0 0
N6580 1.568 0.900 0 0 0
N6582 2.265 0.300 0 0 0
N6584 2.369 1.500 0 0 0
N6586 1.856 0.600 0 0 0
N6588 2.185 0.600 0 0 0
N6590 2.468 0.600 0 0 0
N6592 1.698 1.200 0 0 0
N6594 3.101 0.600 0 0 0
N6596 1.714 0.600 0 0 0
N6598 1.745 0.600 0 0 0
N6600 2.987 0.600 0 0 0
N6601 1.523 0.666 0 0 0
N6602 3.168 0.600 0 0 0
N6603 8.658 1.200 0 0 0
N6605 4.653 1.500 0 0 0
N6607 6.236 0.300 0 0 0
N6609 7.468 0.900 0 0 0
N6610 6.494 1.118 0 0 0
N6612 2.898 1.471 0 0 0
N6614 5.556 0.600 0 0 0
N6615 4.465 1.865 0 0 0
N6616 4.680 0.900 0 0 0
N6617 9.111 0.900 0 0 0
N6619 10.229 0.900 0 0 0
N6621 6.682 1.200 0 0 0
N6623 5.138 0.900 0 0 0
N6625 5.169 0.900 0 0 0
N6627 5.533 0.900 0 0 0
N6628 4.968 0.900 0 0 0
N6630 4.353 0.900 0 0 0
N6632 6.019 0.900 0 0 0
N6634 5.368 0.900 0 0 0
N6636 4.619 0.900 0 0 0
N6638 2.634 0.900 0 0 0
N6640 5.422 0.900 0 0 0
N6643 5.578 1.200 0 0 0
N6644 6.088 0.600 0 0 0
N6646 5.532 0.825 0 0 0
N6648 5.137 0.900 0 0 0
N6649 4.398 1.457 0 0 0
N6650 6.444 0.900 0 0 0
N6652 5.139 0.600 0 0 0
N6654 3.709 0.900 0 0 0
N6655 3.396 1.503 0 0 0
N6656 4.263 0.900 0 0 0
N6657 3.784 0.600 0 0 0
N6659 4.263 0.900 0 0 0
N6661 5.918 0.900 0 0 0
N6663 4.074 0.600 0 0 0
N6665 4.183 0.600 0 0 0
N6667 6.233 0.900 0 0 0
N6669 4.195 0.900 0 0 0
N6671 8.443 0.900 0 0 0
N6672 7.401 3.312 0 0 0
N6673 7.972 0.900 0 0 0
N6676 3.874 1.768 0 0 0
N6679 7.166 0.900 0 0 0
N6681 5.931 0.900 0 0 0
N6682 4.165 0.900 0 0 0
N6684 7.844 1.200 0 0 0
N6685 6.199 1.200 0 0 0
N6687 4.924 0.900 0 0 0
N6688 5.346 0.600 0 0 0
N6690 4.397 0.900 0 0 0
N6691 5.761 0.600 0 0 0
N6692 3.657 2.552 0 0 0
N6693 7.523 0.900 0 0 0
N6695 7.234 0.900 0 0 0
N6697 1.969 0.900 0 0 0
N6699 1.931 0.900 0 0 0
N6700 1.331 1.855 0 0 0
N6701 4.119 0.900 0 0 0
N6702 3.261 0.900 0 0 0
N6703 3.893 0.900 0 0 0
N6704 3.333 0.900 0 0 0
N6705 4.946 0.900 0 0 0
N6707 4.589 0.900 0 0 0
N6709 5.292 0.900 0 0 0
N6711 4.699 0.900 0 0 0
N6712 1.804 3.499 0 0 0
N6713 4.917 0.900 0 0 0
N6715 4.846 0.900 0 0 0
N6717 4.126 0.900 0 0 0
N6719 3.574 0.900 0 0 0
N6721 4.965 0.900 0 0 0
N6723 4.604 0.900 0 0 0
N6725 5.185 0.900 0 0 0
N6726 4.669 1.116 0 0 0
N6727 4.828 0.900 0 0 0
N6729 2.949 0.900 0 0 0
N6731 4.008 0.900 0 0 0
N6734 3.326 0.900 0 0 0
N6736 4.131 0.900 0 0 0
N6738 3.438 0.900 0 0 0
N6740 4.344 1.051 0 0 0
N6742 4.594 0.900 0 0 0
N6744 5.002 0.900 0 0 0
N6746 4.839 0.900 0 0 0
N6748 4.356 0.900 0 0 0
N6750 5.659 1.200 0 0 0
N6752 5.107 1.200 0 0 0
N6754 3.552 0.900 0 0 0
N6756 5.564 0.900 0 0 0
N6758 5.721 0.600 0 0 0
N6760 4.403 0.900 0 0 0
N6762 1.931 2.344 0 0 0
N6764 1.838 0.900 0 0 0
N6765 1.407 0.900 0 0 0
N6766 1.331 1.500 0 0 0
N6767 1.816 1.500 0 0 0
N6769 2.893 0.900 0 0 0
N6771 5.075 0.600 0 0 0
N6774 3.830 0.900 0 0 0
N6775 3.473 0.900 0 0 0
N6777 2.339 0.900 0 0 0
N6779 4.405 0.900 0 0 0
N6780 4.055 0.900 0 0 0
N6782 2.825 0.900 0 0 0
N6783 1.515 2.210 0 0 0
N6784 2.248 0.900 0 0 0
N6787 2.712 1.120 0 0 0
N6788 2.820 0.900 0 0 0
N6790 1.701 0.910 0 0 0
N6791 1.363 1.101 0 0 0
N6792 2.165 1.140 0 0 0
N6793 1.920 1.140 0 0 0
N6794 1.443 0.930 0 0 0
N6795 1.711 0.900 0 0 0
N6797 1.625 0.900 0 0 0
N6799 2.015 1.130 0 0 0
N6800 1.850 1.457 0 0 0
N6802 1.575 0.920 0 0 0
N6804 2.472 0.900 0 0 0
N6806 1.444 0.900 0 0 0
N6809 2.168 0.890 0 0 0
N6811 2.689 0.830 0 0 0
N6813 2.389 0.710 0 0 0
N6815 2.240 0.900 0 0 0
N6817 2.483 0.900 0 0 0
N6818 2.105 0.900 0 0 0
N6819 2.817 0.900 0 0 0
N6821 2.434 0.900 0 0 0
N6823 1.679 2.232 0 0 0
N6826 2.150 0.940 0 0 0
N6827 1.799 1.180 0 0 0
N6829 3.063 0.900 0 0 0
N6831 1.701 0.900 0 0 0
N6832 1.416 0.900 0 0 0
N6834 2.963 0.900 0 0 0
N6836 1.786 0.900 0 0 0
N6838 2.714 1.418 0 0 0
N6841 2.872 0.900 0 0 0
N6842 2.071 1.287 0 0 0
N6843 2.071 1.200 0 0 0
N6845 3.865 0.900 0 0 0
N6847 3.741 0.900 0 0 0
N6849 3.306 0.900 0 0 0
N6851 1.870 0.900 0 0 0
N6853 2.224 0.900 0 0 0
N6854 2.153 0.971 0 0 0
N6855 2.520 0.900 0 0 0
N6856 1.388 1.443 0 0 0
N6858 2.218 1.940 0 0 0
N6860 2.907 1.190 0 0 0
N6862 4.457 1.200 0 0 0
N6863 3.432 1.717 0 0 0
N6864 4.130 0.900 0 0 0
N6866 3.273 2.070 0 0 0
N6868 3.749 1.070 0 0 0
N6871 3.640 0.900 0 0 0
N6872 3.808 0.900 0 0 0
N6874 3.064 1.370 0 0 0
N6875 2.427 1.474 0 0 0
N6876 2.427 2.048 0 0 0
N6878 5.096 1.280 0 0 0
N6879 3.463 1.424 0 0 0
N6880 3.268 3.142 0 0 0
N6882 5.127 1.150 0 0 0
N6884 5.645 1.350 0 0 0
N6886 6.883 1.020 0 0 0
N6888 3.647 0.780 0 0 0
N6889 3.467 1.672 0 0 0
N6891 3.396 1.480 0 0 0
N6893 4.425 1.270 0 0 0
N6895 5.246 1.030 0 0 0
N6896 3.191 1.030 0 0 0
N6897 3.369 1.040 0 0 0
N6899 3.403 1.020 0 0 0
N6902 3.566 1.150 0 0 0
N6904 3.643 1.040 0 0 0
N6906 3.370 1.210 0 0 0
N6908 3.502 1.260 0 0 0
N6910 3.629 0.930 0 0 0
N6912 4.301 1.050 0 0 0
N6914 3.190 1.450 0 0 0
N6916 4.634 1.010 0 0 0
N6918 3.217 1.292 0 0 0
N6919 3.820 1.060 0 0 0
N6920 3.083 1.155 0 0 0
N6922 4.372 1.410 0 0 0
N6923 5.604 0.930 0 0 0
N6924 3.580 1.410 0 0 0
N6926 3.676 1.240 0 0 0
N6928 5.645 1.160 0 0 0
N6930 2.603 0.760 0 0 0
N6931 2.555 1.090 0 0 0
N6932 2.136 1.254 0 0 0
N6935 3.627 0.850 0 0 0
N6936 2.915 0.920 0 0 0
N6937 2.572 1.032 0 0 0
N6939 2.583 1.080 0 0 0
N6941 3.119 0.880 0 0 0
N6942 2.557 0.930 0 0 0
N6943 2.689 0.910 0 0 0
N6945 3.058 0.930 0 0 0
N6946 2.780 1.230 0 0 0
N6948 3.601 0.900 0 0 0
N6950 2.521 0.930 0 0 0
N6952 2.990 0.680 0 0 0
N6954 5.042 0.950 0 0 0
N6956 5.322 0.820 0 0 0
N6958 3.380 1.460 0 0 0
N6960 4.457 0.860 0 0 0
N6961 2.216 3.400 0 0 0
N6962 4.457 1.259 0 0 0
N6964 2.924 1.320 0 0 0
N6968 5.986 0.900 0 0 0
N6969 3.368 0.820 0 0 0
N6970 2.695 2.472 0 0 0
N6971 6.542 0.860 0 0 0
N6973 4.140 1.230 0 0 0
N6974 2.791 1.230 0 0 0
N6976 5.111 1.210 0 0 0
N6978 3.265 0.810 0 0 0
N6980 4.093 1.100 0 0 0
N6982 3.274 0.900 0 0 0
N6984 5.057 0.520 0 0 0
N6986 3.601 1.430 0 0 0
N6988 4.217 1.230 0 0 0
N6989 2.978 1.340 0 0 0
N6990 6.709 1.150 0 0 0
N6992 4.034 1.150 0 0 0
N6994 4.832 0.690 0 0 0
N6996 5.221 0.950 0 0 0
N6998 4.615 0.990 0 0 0
N7000 4.487 0.830 0 0 0
N7002 5.438 0.630 0 0 0
N7004 6.241 0.530 0 0 0
N7006 5.872 0.660 0 0 0
N7007 5.596 2.937 0 0 0
N7009 7.692 0.830 0 0 0
N7010 7.269 1.295 0 0 0
N7011 7.982 0.660 0 0 0
N7012 7.692 0.823 0 0 0
N7014 7.578 0.410 0 0 0
N7016 6.681 0.760 0 0 0
N7017 6.397 0.760 0 0 0
N7018 5.963 0.744 0 0 0
N7019 6.458 0.920 0 0 0
N7021 5.963 0.674 0 0 0
N7022 5.676 1.288 0 0 0
N7023 5.676 1.358 0 0 0
N7024 5.518 0.550 0 0 0
N7026 5.803 0.370 0 0 0
N7028 4.994 0.630 0 0 0
N7031 5.807 2.468 0 0 0
N7032 8.283 0.880 0 0 0
N7034 8.464 0.620 0 0 0
N7036 9.861 0.330 0 0 0
N7038 8.845 1.350 0 0 0
N7040 9.131 0.600 0 0 0
N7042 8.845 0.830 0 0 0
N7044 9.093 0.810 0 0 0
N7046 9.066 0.730 0 0 0
N7048 9.508 0.390 0 0 0
N7051 8.956 0.740 0 0 0
N7052 9.213 0.680 0 0 0
N7054 9.425 1.150 0 0 0
N7056 8.233 1.240 0 0 0
N7058 7.377 1.010 0 0 0
N7060 8.550 0.350 0 0 0
N7062 9.796 0.850 0 0 0
N7064 6.357 0.670 0 0 0
N7066 6.113 0.540 0 0 0
N7068 5.807 2.378 0 0 0
N7069 6.751 0.230 0 0 0
N7071 7.802 0.570 0 0 0
N7073 7.719 0.640 0 0 0
N7074 7.419 0.680 0 0 0
N7075 6.992 0.830 0 0 0
N7079 5.471 0.870 0 0 0
N7081 5.362 0.940 0 0 0
N7083 7.561 0.750 0 0 0
N7084 5.817 0.960 0 0 0
N7085 4.802 0.960 0 0 0
N7086 4.903 0.890 0 0 0
N7087 4.598 1.251 0 0 0
N7090 3.061 2.761 0 0 0
N7092 4.378 0.780 0 0 0
N7094 5.554 0.300 0 0 0
N7096 5.124 0.450 0 0 0
N7098 3.312 0.900 0 0 0
N7100 3.527 0.830 0 0 0
N7102 3.181 0.820 0 0 0
N7104 2.835 0.850 0 0 0
N7105 2.732 1.123 0 0 0
N7106 3.611 0.670 0 0 0
N7107 2.517 0.951 0 0 0
N7109 2.086 0.970 0 0 0
N7111 2.786 0.550 0 0 0
N7112 2.117 0.795 0 0 0
N7114 1.662 0.940 0 0 0
N7116 2.423 0.680 0 0 0
N7118 2.157 0.630 0 0 0
N7120 2.353 0.730 0 0 0
N7122 2.647 0.760 0 0 0
N7124 2.022 0.750 0 0 0
N7125 1.831 0.890 0 0 0
N7127 2.007 1.500 0 0 0
N7129 3.402 0.770 0 0 0
N7131 4.266 0.910 0 0 0
N7133 1.664 1.280 0 0 0
N7134 1.664 1.200 0 0 0
N7136 4.126 0.800 0 0 0
N7137 3.014 1.000 0 0 0
N7139 5.789 0.930 0 0 0
N7140 5.439 1.090 0 0 0
N7142 5.345 0.670 0 0 0
N7143 5.156 0.720 0 0 0
N7144 2.595 0.560 0 0 0

[OUTFALLS]
N1 6.703 FREE NO
N3 6.698 FREE NO
N5 6.840 FREE NO
N8 6.753 FREE NO
N10 7.451 FREE NO
N12 8.775 FREE NO
N14 5.171 FREE NO
N16 5.923 FREE NO
N18 5.923 FREE NO
N20 6.158 FREE NO
N23 6.674 FREE NO
N25 9.363 FREE NO
N27 2.359 FREE NO
N29 3.283 FREE NO
N31 2.919 FREE NO
N33 2.592 FREE NO
N35 2.539 FREE NO
N37 2.092 FREE NO
N39 1.865 FREE NO
N41 2.511 FREE NO
N43 2.480 FREE NO
N45 1.637 FREE NO
N47 1.817 FREE NO
N49 2.286 FREE NO
N50 2.307 FREE NO
N53 1.673 FREE NO
N55 1.772 FREE NO
N57 2.778 FREE NO
N59 2.447 FREE NO
N61 2.536 FREE NO
N63 2.319 FREE NO
N65 2.306 FREE NO
N67 2.021 FREE NO
N69 3.689 FREE NO
N71 3.965 FREE NO
N73 2.025 FREE NO
N75 2.327 FREE NO
N77 1.757 FREE NO
N79 1.611 FREE NO
N81 1.327 FREE NO
N83 1.436 FREE NO
N85 1.624 FREE NO
N87 1.504 FREE NO
N89 2.351 FREE NO
N91 1.736 FREE NO
N93 6.681 FREE NO
N97 5.236 FREE NO
N99 6.688 FREE NO
N101 6.029 FREE NO
N103 1.939 FREE NO
N105 2.625 FREE NO
N107 3.446 FREE NO
N109 4.404 FREE NO
N111 3.739 FREE NO
N115 2.392 FREE NO
N118 2.600 FREE NO
N120 2.644 FREE NO
N122 2.716 FREE NO
N124 3.027 FREE NO
N126 2.432 FREE NO
N128 2.509 FREE NO
N130 2.689 FREE NO
N132 2.060 FREE NO
N134 2.343 FREE NO
N136 2.556 FREE NO
N138 2.509 FREE NO
N140 1.718 FREE NO
N142 2.584 FREE NO
N144 2.250 FREE NO
N146 2.072 FREE NO
N148 1.983 FREE NO
N150 2.394 FREE NO
N152 2.581 FREE NO
N154 2.572 FREE NO
N156 2.553 FREE NO
N158 2.236 FREE NO
N160 2.589 FREE NO
N162 3.689 FREE NO
N164 2.536 FREE NO
N166 2.121 FREE NO
N168 2.369 FREE NO
N170 1.551 FREE NO
N172 3.526 FREE NO
N174 2.468 FREE NO
N176 2.368 FREE NO
N178 2.650 FREE NO
N185 1.286 FREE NO
N188 1.880 FREE NO
N190 4.081 FREE NO
N192 1.504 FREE NO
N194 2.990 FREE NO
N195 1.794 FREE NO
N196 2.198 FREE NO
N198 2.547 FREE NO
N201 2.349 FREE NO
N203 2.042 FREE NO
N205 1.789 FREE NO
N207 1.563 FREE NO
N208 1.940 FREE NO
N209 2.569 FREE NO
N212 2.784 FREE NO
N215 2.369 FREE NO
N218 3.523 FREE NO
N221 1.873 FREE NO
N223 4.082 FREE NO
N225 2.344 FREE NO
N227 6.049 FREE NO
N229 3.747 FREE NO
N230 3.424 FREE NO
N232 4.913 FREE NO
N234 3.650 FREE NO
N236 5.305 FREE NO
N238 4.200 FREE NO
N240 3.398 FREE NO
N242 1.315 FREE NO
N244 4.228 FREE NO
N246 4.402 FREE NO
N249 3.480 FREE NO
N251 3.021 FREE NO
N253 3.991 FREE NO
N255 3.951 FREE NO
N257 4.006 FREE NO
N259 4.000 FREE NO
N261 4.202 FREE NO
N263 3.763 FREE NO
N265 3.635 FREE NO
N267 3.951 FREE NO
N268 3.643 FREE NO
N270 3.603 FREE NO
N272 3.998 FREE NO
N274 3.440 FREE NO
N276 3.407 FREE NO
N278 3.200 FREE NO
N280 2.981 FREE NO
N282 2.665 FREE NO
N285 2.740 FREE NO
N292 3.100 FREE NO
N294 1.238 FREE NO
N295 3.486 FREE NO
N299 3.229 FREE NO
N301 2.627 FREE NO
N303 2.594 FREE NO
N305 3.401 FREE NO
N307 2.991 FREE NO
N316 3.435 FREE NO
N319 4.724 FREE NO
N321 3.610 FREE NO
N323 4.833 FREE NO
N325 3.960 FREE NO
N327 3.966 FREE NO
N328 3.618 FREE NO
N331 3.395 FREE NO
N333 4.414 FREE NO
N335 3.228 FREE NO
N336 2.805 FREE NO
N339 2.807 FREE NO
N341 4.114 FREE NO
N344 2.903 FREE NO
N346 3.165 FREE NO
N348 3.286 FREE NO
N350 2.805 FREE NO
N352 3.199 FREE NO
N354 4.281 FREE NO
N356 4.022 FREE NO
N358 1.462 FREE NO
N363 3.198 FREE NO
N364 2.894 FREE NO
N366 4.006 FREE NO
N368 2.935 FREE NO
N370 2.783 FREE NO
N372 4.005 FREE NO
N374 4.077 FREE NO
N376 3.816 FREE NO
N380 3.816 FREE NO
N382 3.634 FREE NO
N384 3.540 FREE NO
N386 3.634 FREE NO
N389 5.032 FREE NO
N391 6.015 FREE NO
N397 5.073 FREE NO
N399 5.083 FREE NO
N401 5.432 FREE NO
N403 5.041 FREE NO
N405 4.072 FREE NO
N407 5.090 FREE NO
N409 5.111 FREE NO
N411 4.781 FREE NO
N413 3.905 FREE NO
N415 4.963 FREE NO
N419 5.011 FREE NO
N421 4.420 FREE NO
N423 5.415 FREE NO
N425 4.922 FREE NO
N427 5.524 FREE NO
N429 4.819 FREE NO
N431 5.753 FREE NO
N433 4.895 FREE NO
N435 5.469 FREE NO
N439 5.479 FREE NO
N444 5.634 FREE NO
N446 5.214 FREE NO
N448 5.153 FREE NO
N452 5.475 FREE NO
N453 4.965 FREE NO
N455 4.828 FREE NO
N457 4.794 FREE NO
N459 4.870 FREE NO
N461 5.674 FREE NO
N463 5.709 FREE NO
N465 4.780 FREE NO
N467 4.908 FREE NO
N471 5.522 FREE NO
N473 5.035 FREE NO
N475 7.025 FREE NO
N477 4.769 FREE NO
N479 4.884 FREE NO
N481 4.869 FREE NO
N483 4.583 FREE NO
N485 4.103 FREE NO
N487 4.583 FREE NO
N489 4.412 FREE NO
N490 4.251 FREE NO
N491 4.423 FREE NO
N493 5.190 FREE NO
N496 4.271 FREE NO
N502 4.596 FREE NO
N506 4.406 FREE NO
N508 3.827 FREE NO
N510 3.601 FREE NO
N512 4.197 FREE NO
N514 3.506 FREE NO
N517 4.014 FREE NO
N519 3.947 FREE NO
N521 3.605 FREE NO
N524 4.314 FREE NO
N526 3.758 FREE NO
N528 3.833 FREE NO
N530 3.473 FREE NO
N532 3.132 FREE NO
N535 4.596 FREE NO
N537 4.335 FREE NO
N540 3.657 FREE NO
N542 3.935 FREE NO
N545 3.930 FREE NO
N548 4.399 FREE NO
N550 4.029 FREE NO
N552 4.488 FREE NO
N558 3.547 FREE NO
N560 3.424 FREE NO
N565 3.894 FREE NO
N569 2.311 FREE NO
N573 2.072 FREE NO
N575 3.449 FREE NO
N577 2.901 FREE NO
N578 3.051 FREE NO
N579 3.417 FREE NO
N581 2.901 FREE NO
N583 3.502 FREE NO
N585 2.168 FREE NO
N589 1.733 FREE NO
N591 1.595 FREE NO
N593 1.709 FREE NO
N595 2.514 FREE NO
N597 2.524 FREE NO
N599 2.216 FREE NO
N606 2.051 FREE NO
N608 2.227 FREE NO
N610 2.327 FREE NO
N612 2.156 FREE NO
N614 1.942 FREE NO
N616 1.681 FREE NO
N618 3.517 FREE NO
N620 1.822 FREE NO
N622 1.820 FREE NO
N624 2.444 FREE NO
N628 2.723 FREE NO
N630 3.073 FREE NO
N632 1.607 FREE NO
N636 2.532 FREE NO
N638 3.275 FREE NO
N640 3.021 FREE NO
N642 2.990 FREE NO
N644 3.652 FREE NO
N646 3.453 FREE NO
N649 4.082 FREE NO
N651 3.845 FREE NO
N653 3.623 FREE NO
N656 3.528 FREE NO
N658 3.369 FREE NO
N660 3.975 FREE NO
N662 3.202 FREE NO
N666 2.023 FREE NO
N668 2.173 FREE NO
N669 2.482 FREE NO
N671 2.211 FREE NO
N679 2.888 FREE NO
N681 2.390 FREE NO
N685 2.642 FREE NO
N687 3.030 FREE NO
N689 3.990 FREE NO
N690 2.490 FREE NO
N694 2.391 FREE NO
N698 3.210 FREE NO
N702 2.812 FREE NO
N704 4.286 FREE NO
N706 3.410 FREE NO
N708 2.727 FREE NO
N711 2.904 FREE NO
N713 2.739 FREE NO
N715 3.045 FREE NO
N717 3.925 FREE NO
N719 2.301 FREE NO
N720 3.623 FREE NO
N722 2.866 FREE NO
N725 3.058 FREE NO
N726 2.720 FREE NO
N729 3.165 FREE NO
N732 3.805 FREE NO
N735 3.632 FREE NO
N737 3.008 FREE NO
N739 3.083 FREE NO
N741 3.177 FREE NO
N745 3.900 FREE NO
N751 3.773 FREE NO
N753 2.303 FREE NO
N755 2.507 FREE NO
N757 3.971 FREE NO
N759 3.203 FREE NO
N761 2.806 FREE NO
N765 3.351 FREE NO
N767 3.782 FREE NO
N769 2.212 FREE NO
N771 2.922 FREE NO
N773 2.762 FREE NO
N775 2.702 FREE NO
N776 2.686 FREE NO
N781 3.581 FREE NO
N785 2.461 FREE NO
N789 2.708 FREE NO
N790 1.871 FREE NO
N792 1.917 FREE NO
N794 2.508 FREE NO
N796 1.491 FREE NO
N802 2.508 FREE NO
N803 3.530 FREE NO
N808 1.915 FREE NO
N809 3.473 FREE NO
N815 2.145 FREE NO
N817 2.005 FREE NO
N818 2.300 FREE NO
N822 0.590 FREE NO
N824 1.940 FREE NO
N826 1.833 FREE NO
N828 1.353 FREE NO
N830 1.619 FREE NO
N831 1.748 FREE NO
N834 1.242 FREE NO
N836 0.843 FREE NO
N840 1.376 FREE NO
N844 1.452 FREE NO
N846 1.879 FREE NO
N849 2.745 FREE NO
N850 0.843 FREE NO
N852 6.644 FREE NO
N854 7.224 FREE NO
N856 6.101 FREE NO
N858 6.776 FREE NO
N864 8.193 FREE NO
N866 8.097 FREE NO
N868 8.003 FREE NO
N870 8.281 FREE NO
N872 7.844 FREE NO
N874 8.345 FREE NO
N876 8.412 FREE NO
N878 7.559 FREE NO
N880 8.131 FREE NO
N882 8.147 FREE NO
N884 7.233 FREE NO
N886 7.790 FREE NO
N888 7.626 FREE NO
N889 7.233 FREE NO
N892 7.461 FREE NO
N900 7.836 FREE NO
N902 7.184 FREE NO
N904 6.965 FREE NO
N906 7.559 FREE NO
N908 7.661 FREE NO
N910 7.907 FREE NO
N912 7.919 FREE NO
N914 8.561 FREE NO
N916 8.278 FREE NO
N918 7.832 FREE NO
N920 7.421 FREE NO
N922 8.022 FREE NO
N924 8.733 FREE NO
N926 7.031 FREE NO
N928 7.423 FREE NO
N930 7.032 FREE NO
N932 7.563 FREE NO
N934 7.765 FREE NO
N936 6.832 FREE NO
N938 6.838 FREE NO
N942 8.550 FREE NO
N944 9.179 FREE NO
N947 8.783 FREE NO
N949 7.922 FREE NO
N951 7.011 FREE NO
N953 7.186 FREE NO
N956 7.506 FREE NO
N958 7.793 FREE NO
N961 7.618 FREE NO
N962 7.416 FREE NO
N964 6.961 FREE NO
N965 7.502 FREE NO
N967 6.369 FREE NO
N969 6.728 FREE NO
N971 6.117 FREE NO
N972 6.800 FREE NO
N973 6.448 FREE NO
N976 6.634 FREE NO
N977 6.811 FREE NO
N979 7.437 FREE NO
N981 7.405 FREE NO
N982 7.402 FREE NO
N983 7.368 FREE NO
N985 7.685 FREE NO
N987 6.478 FREE NO
N989 7.594 FREE NO
N991 7.944 FREE NO
N993 7.600 FREE NO
N995 7.482 FREE NO
N997 8.273 FREE NO
N999 8.352 FREE NO
N1001 6.317 FREE NO
N1003 8.172 FREE NO
N1005 7.768 FREE NO
N1007 7.865 FREE NO
N1009 7.315 FREE NO
N1011 7.243 FREE NO
N1013 6.715 FREE NO
N1015 6.613 FREE NO
N1016 8.345 FREE NO
N1018 7.296 FREE NO
N1020 7.015 FREE NO
N1022 7.778 FREE NO
N1024 9.513 FREE NO
N1026 7.092 FREE NO
N1028 6.697 FREE NO
N1030 7.655 FREE NO
N1032 7.356 FREE NO
N1034 7.162 FREE NO
N1036 7.321 FREE NO
N1038 6.230 FREE NO
N1040 6.797 FREE NO
N1042 6.832 FREE NO
N1044 6.737 FREE NO
N1046 7.123 FREE NO
N1048 6.668 FREE NO
N1050 6.518 FREE NO
N1052 6.918 FREE NO
N1054 6.522 FREE NO
N1056 6.976 FREE NO
N1058 6.594 FREE NO
N1060 6.866 FREE NO
N1064 7.092 FREE NO
N1066 6.984 FREE NO
N1068 7.112 FREE NO
N1070 6.614 FREE NO
N1072 6.475 FREE NO
N1074 7.226 FREE NO
N1076 6.891 FREE NO
N1078 7.099 FREE NO
N1080 8.405 FREE NO
N1082 7.785 FREE NO
N1084 6.976 FREE NO
N1086 7.457 FREE NO
N1089 5.728 FREE NO
N1091 6.191 FREE NO
N1095 5.514 FREE NO
N1097 6.329 FREE NO
N1098 6.020 FREE NO
N1100 5.711 FREE NO
N1102 6.071 FREE NO
N1104 4.822 FREE NO
N1111 6.835 FREE NO
N1113 5.803 FREE NO
N1115 6.356 FREE NO
N1117 6.166 FREE NO
N1119 5.431 FREE NO
N1121 6.455 FREE NO
N1124 7.142 FREE NO
N1126 6.840 FREE NO
N1128 6.769 FREE NO
N1131 6.496 FREE NO
N1133 5.618 FREE NO
N1136 5.520 FREE NO
N1139 6.021 FREE NO
N1141 5.585 FREE NO
N1143 5.421 FREE NO
N1145 4.942 FREE NO
N1147 6.022 FREE NO
N1149 5.491 FREE NO
N1151 5.623 FREE NO
N1153 5.505 FREE NO
N1155 6.181 FREE NO
N1157 4.745 FREE NO
N1161 6.005 FREE NO
N1163 5.819 FREE NO
N1165 5.740 FREE NO
N1169 5.537 FREE NO
N1171 6.055 FREE NO
N1173 5.832 FREE NO
N1175 6.373 FREE NO
N1178 6.492 FREE NO
N1182 9.238 FREE NO
N1186 8.774 FREE NO
N1188 9.677 FREE NO
N1190 8.280 FREE NO
N1192 9.335 FREE NO
N1194 9.428 FREE NO
N1196 8.280 FREE NO
N1198 9.171 FREE NO
N1200 9.070 FREE NO
N1206 8.809 FREE NO
N1207 9.032 FREE NO
N1210 9.585 FREE NO
N1212 9.278 FREE NO
N1215 10.425 FREE NO
N1216 8.161 FREE NO
N1217 8.996 FREE NO
N1221 9.888 FREE NO
N1223 9.769 FREE NO
N1226 10.104 FREE NO
N1228 4.572 FREE NO
N1231 6.973 FREE NO
N1235 5.821 FREE NO
N1240 6.892 FREE NO
N1243 9.105 FREE NO
N1247 8.035 FREE NO
N1249 8.399 FREE NO
N1250 8.695 FREE NO
N1252 8.399 FREE NO
N1254 8.406 FREE NO
N1256 5.958 FREE NO
N1258 7.523 FREE NO
N1261 5.753 FREE NO
N1263 7.311 FREE NO
N1267 5.132 FREE NO
N1269 7.153 FREE NO
N1271 7.292 FREE NO
N1273 7.611 FREE NO
N1275 8.121 FREE NO
N1277 7.005 FREE NO
N1279 5.468 FREE NO
N1281 7.664 FREE NO
N1283 7.617 FREE NO
N1285 6.505 FREE NO
N1287 6.460 FREE NO
N1289 6.490 FREE NO
N1294 7.513 FREE NO
N1296 4.058 FREE NO
N1298 7.051 FREE NO
N1301 7.995 FREE NO
N1303 6.503 FREE NO
N1305 6.503 FREE NO
N1307 5.401 FREE NO
N1309 6.421 FREE NO
N1311 8.235 FREE NO
N1313 6.348 FREE NO
N1315 6.684 FREE NO
N1317 6.264 FREE NO
N1319 7.637 FREE NO
N1323 5.364 FREE NO
N1325 11.929 FREE NO
N1327 11.654 FREE NO
N1329 12.639 FREE NO
N1331 12.263 FREE NO
N1333 12.300 FREE NO
N1335 12.644 FREE NO
N1339 12.308 FREE NO
N1341 12.393 FREE NO
N1343 12.398 FREE NO
N1348 12.367 FREE NO
N1354 12.069 FREE NO
N1356 11.608 FREE NO
N1358 11.811 FREE NO
N1360 11.777 FREE NO
N1362 11.561 FREE NO
N1366 11.666 FREE NO
N1368 11.323 FREE NO
N1371 11.778 FREE NO
N1373 11.697 FREE NO
N1375 11.709 FREE NO
N1376 11.608 FREE NO
N1379 11.578 FREE NO
N1381 11.752 FREE NO
N1382 11.904 FREE NO
N1386 11.861 FREE NO
N1388 11.773 FREE NO
N1390 11.682 FREE NO
N1394 12.062 FREE NO
N1397 11.625 FREE NO
N1399 11.104 FREE NO
N1401 11.255 FREE NO
N1403 11.770 FREE NO
N1405 11.257 FREE NO
N1408 11.582 FREE NO
N1411 11.312 FREE NO
N1413 12.160 FREE NO
N1416 11.835 FREE NO
N1418 11.772 FREE NO
N1420 11.705 FREE NO
N1422 11.435 FREE NO
N1424 11.555 FREE NO
N1427 11.133 FREE NO
N1429 11.625 FREE NO
N1430 11.703 FREE NO
N1432 11.118 FREE NO
N1434 10.896 FREE NO
N1438 11.310 FREE NO
N1441 11.177 FREE NO
N1443 11.198 FREE NO
N1445 10.875 FREE NO
N1447 10.834 FREE NO
N1449 11.797 FREE NO
N1451 11.637 FREE NO
N1454 12.577 FREE NO
N1456 11.629 FREE NO
N1459 11.989 FREE NO
N1460 12.033 FREE NO
N1465 10.362 FREE NO
N1466 12.848 FREE NO
N1469 11.770 FREE NO
N1470 10.729 FREE NO
N1472 11.285 FREE NO
N1476 9.650 FREE NO
N1477 10.071 FREE NO
N1479 11.074 FREE NO
N1481 10.581 FREE NO
N1484 12.147 FREE NO
N1488 12.597 FREE NO
N1490 11.859 FREE NO
N1496 11.802 FREE NO
N1498 11.925 FREE NO
N1500 12.053 FREE NO
N1504 12.217 FREE NO
N1511 11.444 FREE NO
N1512 12.017 FREE NO
N1513 11.716 FREE NO
N1515 11.548 FREE NO
N1517 11.340 FREE NO
N1519 10.379 FREE NO
N1521 10.847 FREE NO
N1523 11.551 FREE NO
N1525 11.124 FREE NO
N1529 11.740 FREE NO
N1532 11.626 FREE NO
N1534 12.067 FREE NO
N1536 11.333 FREE NO
N1538 11.467 FREE NO
N1540 11.724 FREE NO
N1542 11.851 FREE NO
N1543 12.291 FREE NO
N1545 12.118 FREE NO
N1547 12.298 FREE NO
N1549 11.957 FREE NO
N1551 12.489 FREE NO
N1553 11.630 FREE NO
N1555 11.689 FREE NO
N1557 12.188 FREE NO
N1559 12.771 FREE NO
N1561 12.159 FREE NO
N1566 12.406 FREE NO
N1568 12.055 FREE NO
N1570 12.194 FREE NO
N1571 12.720 FREE NO
N1573 11.820 FREE NO
N1575 12.746 FREE NO
N1577 12.722 FREE NO
N1580 12.681 FREE NO
N1581 12.540 FREE NO
N1583 12.852 FREE NO
N1585 12.535 FREE NO
N1587 12.632 FREE NO
N1589 12.408 FREE NO
N1591 12.311 FREE NO
N1594 1.651 FREE NO
N1596 10.048 FREE NO
N1597 10.746 FREE NO
N1600 10.745 FREE NO
N1602 10.706 FREE NO
N1604 11.029 FREE NO
N1606 11.499 FREE NO
N1608 11.072 FREE NO
N1610 10.486 FREE NO
N1612 11.142 FREE NO
N1614 11.036 FREE NO
N1616 11.262 FREE NO
N1619 11.147 FREE NO
N1622 10.955 FREE NO
N1625 9.899 FREE NO
N1627 10.479 FREE NO
N1629 11.142 FREE NO
N1630 12.179 FREE NO
N1633 11.292 FREE NO
N1636 9.489 FREE NO
N1638 9.917 FREE NO
N1640 6.957 FREE NO
N1644 8.158 FREE NO
N1646 9.806 FREE NO
N1649 10.896 FREE NO
N1651 10.692 FREE NO
N1653 9.242 FREE NO
N1655 5.946 FREE NO
N1657 5.784 FREE NO
N1659 8.231 FREE NO
N1661 5.908 FREE NO
N1663 5.818 FREE NO
N1665 6.035 FREE NO
N1667 7.075 FREE NO
N1669 12.045 FREE NO
N1671 11.959 FREE NO
N1672 10.056 FREE NO
N1674 11.385 FREE NO
N1676 9.493 FREE NO
N1681 10.751 FREE NO
N1683 10.868 FREE NO
N1686 12.848 FREE NO
N1688 12.486 FREE NO
N1690 10.427 FREE NO
N1693 10.045 FREE NO
N1695 11.363 FREE NO
N1697 12.069 FREE NO
N1699 10.667 FREE NO
N1703 10.095 FREE NO
N1705 11.915 FREE NO
N1707 12.424 FREE NO
N1709 11.417 FREE NO
N1711 12.228 FREE NO
N1714 12.047 FREE NO
N1717 12.391 FREE NO
N1720 12.804 FREE NO
N1723 12.734 FREE NO
N1725 12.334 FREE NO
N1728 12.769 FREE NO
N1730 13.209 FREE NO
N1732 13.028 FREE NO
N1734 9.823 FREE NO
N1737 6.690 FREE NO
N1739 6.837 FREE NO
N1741 6.721 FREE NO
N1743 8.512 FREE NO
N1745 8.441 FREE NO
N1747 8.283 FREE NO
N1749 5.553 FREE NO
N1751 5.786 FREE NO
N1753 6.514 FREE NO
N1755 8.224 FREE NO
N1758 10.368 FREE NO
N1760 14.823 FREE NO
N1763 13.725 FREE NO
N1765 15.604 FREE NO
N1767 14.640 FREE NO
N1769 14.820 FREE NO
N1771 13.908 FREE NO
N1773 14.563 FREE NO
N1775 15.864 FREE NO
N1777 14.183 FREE NO
N1779 14.134 FREE NO
N1781 12.998 FREE NO
N1783 13.322 FREE NO
N1785 14.059 FREE NO
N1787 13.365 FREE NO
N1789 14.070 FREE NO
N1791 14.035 FREE NO
N1793 13.986 FREE NO
N1795 13.960 FREE NO
N1797 13.695 FREE NO
N1799 7.488 FREE NO
N1801 7.268 FREE NO
N1803 7.229 FREE NO
N1810 8.703 FREE NO
N1812 8.285 FREE NO
N1815 7.194 FREE NO
N1818 9.215 FREE NO
N1820 8.525 FREE NO
N1822 8.688 FREE NO
N1824 8.048 FREE NO
N1826 8.313 FREE NO
N1829 8.160 FREE NO
N1831 11.435 FREE NO
N1833 11.823 FREE NO
N1835 12.271 FREE NO
N1837 11.502 FREE NO
N1841 11.279 FREE NO
N1843 12.183 FREE NO
N1845 11.890 FREE NO
N1847 11.411 FREE NO
N1849 12.567 FREE NO
N1857 12.560 FREE NO
N1862 10.170 FREE NO
N1864 10.250 FREE NO
N1868 10.029 FREE NO
N1870 11.180 FREE NO
N1873 10.258 FREE NO
N1875 11.445 FREE NO
N1877 11.173 FREE NO
N1879 9.733 FREE NO
N1881 11.376 FREE NO
N1883 11.286 FREE NO
N1885 10.341 FREE NO
N1887 10.451 FREE NO
N1889 10.166 FREE NO
N1890 10.644 FREE NO
N1892 9.679 FREE NO
N1894 10.284 FREE NO
N1896 9.177 FREE NO
N1898 9.639 FREE NO
N1900 7.714 FREE NO
N1902 7.603 FREE NO
N1904 7.556 FREE NO
N1906 7.495 FREE NO
N1908 7.980 FREE NO
N1912 8.997 FREE NO
N1914 8.338 FREE NO
N1918 9.743 FREE NO
N1921 8.255 FREE NO
N1924 8.335 FREE NO
N1926 8.830 FREE NO
N1928 6.387 FREE NO
N1932 7.297 FREE NO
N1934 6.590 FREE NO
N1936 7.590 FREE NO
N1938 8.466 FREE NO
N1940 7.212 FREE NO
N1942 7.984 FREE NO
N1944 7.837 FREE NO
N1946 8.161 FREE NO
N1950 7.547 FREE NO
N1953 8.049 FREE NO
N1968 9.802 FREE NO
N1972 10.173 FREE NO
N1976 10.980 FREE NO
N1978 11.374 FREE NO
N1979 10.679 FREE NO
N1981 9.812 FREE NO
N1986 10.660 FREE NO
N1988 9.905 FREE NO
N1991 9.880 FREE NO
N1993 10.152 FREE NO
N1995 12.140 FREE NO
N1996 12.140 FREE NO
N1998 12.351 FREE NO
N2000 11.452 FREE NO
N2002 9.466 FREE NO
N2003 9.273 FREE NO
N2006 9.850 FREE NO
N2009 9.306 FREE NO
N2014 7.910 FREE NO
N2016 9.056 FREE NO
N2018 8.509 FREE NO
N2020 8.429 FREE NO
N2025 8.110 FREE NO
N2027 8.057 FREE NO
N2029 8.509 FREE NO
N2031 8.245 FREE NO
N2034 7.716 FREE NO
N2036 7.893 FREE NO
N2038 8.133 FREE NO
N2040 7.811 FREE NO
N2042 7.830 FREE NO
N2046 8.472 FREE NO
N2048 8.044 FREE NO
N2050 7.418 FREE NO
N2052 7.469 FREE NO
N2053 7.915 FREE NO
N2056 6.472 FREE NO
N2059 6.865 FREE NO
N2061 7.272 FREE NO
N2063 7.741 FREE NO
N2065 8.085 FREE NO
N2067 7.712 FREE NO
N2068 6.261 FREE NO
N2070 7.050 FREE NO
N2072 6.499 FREE NO
N2074 5.957 FREE NO
N2076 6.437 FREE NO
N2079 5.957 FREE NO
N2080 8.066 FREE NO
N2083 5.847 FREE NO
N2085 6.742 FREE NO
N2087 6.661 FREE NO
N2089 6.984 FREE NO
N2093 5.769 FREE NO
N2098 7.527 FREE NO
N2102 8.672 FREE NO
N2105 7.971 FREE NO
N2108 8.429 FREE NO
N2110 8.463 FREE NO
N2112 7.527 FREE NO
N2114 7.768 FREE NO
N2116 6.702 FREE NO
N2121 8.672 FREE NO
N2123 6.617 FREE NO
N2127 7.509 FREE NO
N2128 7.265 FREE NO
N2133 8.396 FREE NO
N2134 8.396 FREE NO
N2136 8.261 FREE NO
N2137 11.673 FREE NO
N2138 11.673 FREE NO
N2140 8.575 FREE NO
N2142 9.569 FREE NO
N2144 8.968 FREE NO
N2146 9.474 FREE NO
N2148 8.695 FREE NO
N2149 8.419 FREE NO
N2151 9.391 FREE NO
N2153 9.351 FREE NO
N2155 8.035 FREE NO
N2157 9.190 FREE NO
N2159 10.799 FREE NO
N2160 7.706 FREE NO
N2164 7.132 FREE NO
N2165 6.424 FREE NO
N2166 6.739 FREE NO
N2167 11.888 FREE NO
N2169 9.484 FREE NO
N2173 9.946 FREE NO
N2175 9.941 FREE NO
N2177 10.635 FREE NO
N2180 9.684 FREE NO
N2182 10.601 FREE NO
N2184 9.974 FREE NO
N2186 10.189 FREE NO
N2188 10.118 FREE NO
N2190 9.736 FREE NO
N2192 9.776 FREE NO
N2194 9.533 FREE NO
N2196 9.715 FREE NO
N2197 9.714 FREE NO
N2200 9.908 FREE NO
N2202 10.074 FREE NO
N2204 10.189 FREE NO
N2206 9.694 FREE NO
N2209 9.946 FREE NO
N2212 11.994 FREE NO
N2214 11.988 FREE NO
N2216 11.365 FREE NO
N2218 11.967 FREE NO
N2219 12.040 FREE NO
N2228 11.282 FREE NO
N2230 11.592 FREE NO
N2233 11.440 FREE NO
N2238 10.236 FREE NO
N2240 10.160 FREE NO
N2242 10.117 FREE NO
N2244 10.524 FREE NO
N2246 10.419 FREE NO
N2247 9.879 FREE NO
N2249 8.456 FREE NO
N2252 8.559 FREE NO
N2255 8.404 FREE NO
N2257 8.401 FREE NO
N2258 8.320 FREE NO
N2263 8.081 FREE NO
N2265 8.013 FREE NO
N2267 8.218 FREE NO
N2269 9.851 FREE NO
N2271 9.267 FREE NO
N2273 8.939 FREE NO
N2275 8.568 FREE NO
N2277 8.652 FREE NO
N2279 9.254 FREE NO
N2283 7.957 FREE NO
N2286 8.632 FREE NO
N2288 8.218 FREE NO
N2290 8.682 FREE NO
N2291 8.243 FREE NO
N2293 8.340 FREE NO
N2295 8.393 FREE NO
N2297 9.526 FREE NO
N2299 9.469 FREE NO
N2300 10.719 FREE NO
N2302 9.926 FREE NO
N2307 9.511 FREE NO
N2309 9.767 FREE NO
N2311 9.165 FREE NO
N2313 7.349 FREE NO
N2315 7.674 FREE NO
N2317 8.089 FREE NO
N2319 8.925 FREE NO
N2321 7.688 FREE NO
N2323 10.380 FREE NO
N2325 9.916 FREE NO
N2329 8.038 FREE NO
N2331 11.918 FREE NO
N2332 9.952 FREE NO
N2333 9.879 FREE NO
N2334 8.488 FREE NO
N2336 5.831 FREE NO
N2338 5.899 FREE NO
N2340 5.504 FREE NO
N2342 5.197 FREE NO
N2344 5.062 FREE NO
N2349 5.474 FREE NO
N2351 5.463 FREE NO
N2353 5.147 FREE NO
N2355 5.664 FREE NO
N2357 6.053 FREE NO
N2359 5.885 FREE NO
N2363 6.393 FREE NO
N2370 4.564 FREE NO
N2371 5.144 FREE NO
N2374 4.959 FREE NO
N2376 4.931 FREE NO
N2378 5.283 FREE NO
N2382 4.789 FREE NO
N2383 4.812 FREE NO
N2384 4.708 FREE NO
N2385 4.934 FREE NO
N2390 4.644 FREE NO
N2391 4.419 FREE NO
N2395 3.497 FREE NO
N2396 3.500 FREE NO
N2398 3.983 FREE NO
N2400 5.003 FREE NO
N2402 4.896 FREE NO
N2405 4.885 FREE NO
N2407 4.935 FREE NO
N2412 4.477 FREE NO
N2416 4.018 FREE NO
N2420 5.540 FREE NO
N2424 5.205 FREE NO
N2426 4.789 FREE NO
N2428 5.341 FREE NO
N2430 5.396 FREE NO
N2433 5.351 FREE NO
N2438 5.053 FREE NO
N2439 4.713 FREE NO
N2441 4.695 FREE NO
N2443 4.719 FREE NO
N2445 4.634 FREE NO
N2447 4.298 FREE NO
N2448 4.500 FREE NO
N2450 3.410 FREE NO
N2452 4.089 FREE NO
N2454 4.172 FREE NO
N2456 3.724 FREE NO
N2458 3.995 FREE NO
N2462 4.139 FREE NO
N2464 4.377 FREE NO
N2466 4.384 FREE NO
N2468 4.762 FREE NO
N2472 3.600 FREE NO
N2477 4.130 FREE NO
N2479 3.652 FREE NO
N2481 3.894 FREE NO
N2483 3.867 FREE NO
N2485 4.345 FREE NO
N2487 3.817 FREE NO
N2489 2.930 FREE NO
N2491 3.166 FREE NO
N2493 3.760 FREE NO
N2495 3.795 FREE NO
N2497 4.419 FREE NO
N2499 4.629 FREE NO
N2501 3.676 FREE NO
N2503 3.778 FREE NO
N2507 3.743 FREE NO
N2509 2.977 FREE NO
N2511 3.365 FREE NO
N2513 3.635 FREE NO
N2515 3.457 FREE NO
N2517 3.925 FREE NO
N2520 3.852 FREE NO
N2522 2.830 FREE NO
N2524 3.532 FREE NO
N2526 3.837 FREE NO
N2530 3.749 FREE NO
N2537 2.909 FREE NO
N2539 2.855 FREE NO
N2540 3.185 FREE NO
N2542 3.185 FREE NO
N2545 3.390 FREE NO
N2547 3.643 FREE NO
N2549 3.561 FREE NO
N2552 2.676 FREE NO
N2556 2.837 FREE NO
N2558 2.663 FREE NO
N2560 2.349 FREE NO
N2563 3.114 FREE NO
N2564 5.683 FREE NO
N2565 5.633 FREE NO
N2567 5.084 FREE NO
N2568 4.537 FREE NO
N2569 4.918 FREE NO
N2571 5.231 FREE NO
N2574 4.511 FREE NO
N2577 4.869 FREE NO
N2585 4.219 FREE NO
N2586 4.155 FREE NO
N2587 3.426 FREE NO
N2588 4.389 FREE NO
N2590 12.221 FREE NO
N2592 12.038 FREE NO
N2594 11.017 FREE NO
N2596 10.776 FREE NO
N2598 12.201 FREE NO
N2600 11.868 FREE NO
N2604 14.394 FREE NO
N2606 14.104 FREE NO
N2608 14.260 FREE NO
N2612 14.283 FREE NO
N2614 15.025 FREE NO
N2616 14.925 FREE NO
N2618 14.851 FREE NO
N2620 14.589 FREE NO
N2623 15.320 FREE NO
N2625 14.074 FREE NO
N2627 14.450 FREE NO
N2629 14.378 FREE NO
N2633 14.202 FREE NO
N2635 13.131 FREE NO
N2637 15.154 FREE NO
N2639 15.145 FREE NO
N2641 14.076 FREE NO
N2643 13.604 FREE NO
N2645 13.612 FREE NO
N2647 14.566 FREE NO
N2649 14.442 FREE NO
N2650 13.694 FREE NO
N2653 14.162 FREE NO
N2655 13.620 FREE NO
N2657 13.622 FREE NO
N2659 14.085 FREE NO
N2661 13.865 FREE NO
N2663 14.826 FREE NO
N2667 15.263 FREE NO
N2669 15.705 FREE NO
N2671 15.758 FREE NO
N2673 15.812 FREE NO
N2675 14.294 FREE NO
N2677 15.064 FREE NO
N2679 14.294 FREE NO
N2681 13.622 FREE NO
N2683 13.330 FREE NO
N2685 14.115 FREE NO
N2687 14.259 FREE NO
N2689 14.294 FREE NO
N2690 14.651 FREE NO
N2693 14.431 FREE NO
N2695 13.759 FREE NO
N2696 15.390 FREE NO
N2698 16.082 FREE NO
N2700 17.691 FREE NO
N2702 16.644 FREE NO
N2704 14.616 FREE NO
N2706 14.771 FREE NO
N2709 13.546 FREE NO
N2711 13.455 FREE NO
N2713 14.202 FREE NO
N2716 13.748 FREE NO
N2720 15.658 FREE NO
N2722 14.779 FREE NO
N2723 13.651 FREE NO
N2725 12.843 FREE NO
N2729 14.894 FREE NO
N2731 17.661 FREE NO
N2734 14.998 FREE NO
N2737 14.031 FREE NO
N2739 16.745 FREE NO
N2743 17.209 FREE NO
N2745 12.081 FREE NO
N2747 12.159 FREE NO
N2750 14.332 FREE NO
N2754 12.911 FREE NO
N2760 15.605 FREE NO
N2764 7.205 FREE NO
N2766 7.494 FREE NO
N2770 6.876 FREE NO
N2772 7.024 FREE NO
N2774 7.001 FREE NO
N2776 6.237 FREE NO
N2779 7.162 FREE NO
N2781 6.975 FREE NO
N2783 6.546 FREE NO
N2785 7.029 FREE NO
N2792 7.613 FREE NO
N2795 7.440 FREE NO
N2797 7.790 FREE NO
N2800 7.874 FREE NO
N2802 7.381 FREE NO
N2804 7.891 FREE NO
N2806 8.540 FREE NO
N2809 7.719 FREE NO
N2811 7.956 FREE NO
N2815 6.632 FREE NO
N2817 7.630 FREE NO
N2819 8.091 FREE NO
N2821 7.439 FREE NO
N2823 7.794 FREE NO
N2827 8.345 FREE NO
N2828 8.490 FREE NO
N2831 8.070 FREE NO
N2833 6.672 FREE NO
N2835 6.076 FREE NO
N2839 6.822 FREE NO
N2841 6.873 FREE NO
N2843 6.556 FREE NO
N2845 6.831 FREE NO
N2847 7.010 FREE NO
N2848 7.086 FREE NO
N2850 7.090 FREE NO
N2853 7.429 FREE NO
N2856 7.084 FREE NO
N2858 6.660 FREE NO
N2860 6.864 FREE NO
N2864 5.788 FREE NO
N2866 6.486 FREE NO
N2868 6.674 FREE NO
N2870 6.248 FREE NO
N2872 6.278 FREE NO
N2874 6.214 FREE NO
N2876 6.636 FREE NO
N2878 7.004 FREE NO
N2879 8.405 FREE NO
N2881 6.480 FREE NO
N2883 6.870 FREE NO
N2886 6.254 FREE NO
N2888 6.014 FREE NO
N2890 6.459 FREE NO
N2891 6.459 FREE NO
N2893 5.501 FREE NO
N2895 5.823 FREE NO
N2898 6.276 FREE NO
N2900 6.144 FREE NO
N2902 5.711 FREE NO
N2904 6.207 FREE NO
N2906 6.126 FREE NO
N2908 5.763 FREE NO
N2910 5.762 FREE NO
N2912 6.107 FREE NO
N2914 5.736 FREE NO
N2917 6.324 FREE NO
N2919 6.518 FREE NO
N2921 5.710 FREE NO
N2923 5.182 FREE NO
N2925 5.406 FREE NO
N2927 5.102 FREE NO
N2929 5.197 FREE NO
N2931 7.523 FREE NO
N2933 6.452 FREE NO
N2935 6.389 FREE NO
N2937 6.394 FREE NO
N2939 6.504 FREE NO
N2941 6.349 FREE NO
N2943 5.664 FREE NO
N2945 5.719 FREE NO
N2947 5.754 FREE NO
N2954 5.491 FREE NO
N2956 5.597 FREE NO
N2959 5.677 FREE NO
N2961 5.866 FREE NO
N2963 5.878 FREE NO
N2965 5.591 FREE NO
N2966 6.311 FREE NO
N2968 6.545 FREE NO
N2970 5.894 FREE NO
N2972 5.570 FREE NO
N2974 5.605 FREE NO
N2976 5.713 FREE NO
N2985 4.123 FREE NO
N2987 4.181 FREE NO
N2989 5.329 FREE NO
N2991 4.118 FREE NO
N2993 4.078 FREE NO
N2995 4.674 FREE NO
N2997 4.781 FREE NO
N2999 4.227 FREE NO
N3001 5.132 FREE NO
N3004 4.924 FREE NO
N3007 5.104 FREE NO
N3010 4.574 FREE NO
N3013 8.458 FREE NO
N3015 8.056 FREE NO
N3028 2.056 FREE NO
N3030 2.198 FREE NO
N3032 2.348 FREE NO
N3034 2.643 FREE NO
N3036 2.387 FREE NO
N3038 4.681 FREE NO
N3040 4.759 FREE NO
N3044 4.498 FREE NO
N3046 4.681 FREE NO
N3048 4.251 FREE NO
N3050 2.646 FREE NO
N3053 3.289 FREE NO
N3055 3.119 FREE NO
N3058 3.765 FREE NO
N3061 2.427 FREE NO
N3062 2.469 FREE NO
N3064 3.266 FREE NO
N3066 2.876 FREE NO
N3068 2.929 FREE NO
N3070 2.638 FREE NO
N3072 2.979 FREE NO
N3076 2.168 FREE NO
N3078 2.168 FREE NO
N3080 2.438 FREE NO
N3082 2.221 FREE NO
N3085 2.743 FREE NO
N3087 3.168 FREE NO
N3089 3.952 FREE NO
N3091 2.866 FREE NO
N3094 3.076 FREE NO
N3096 2.967 FREE NO
N3098 2.466 FREE NO
N3100 4.598 FREE NO
N3105 4.669 FREE NO
N3107 5.377 FREE NO
N3109 5.298 FREE NO
N3113 6.261 FREE NO
N3115 4.308 FREE NO
N3119 4.836 FREE NO
N3121 4.941 FREE NO
N3123 5.115 FREE NO
N3127 6.265 FREE NO
N3131 2.859 FREE NO
N3133 2.533 FREE NO
N3135 2.565 FREE NO
N3137 3.987 FREE NO
N3139 1.865 FREE NO
N3141 1.785 FREE NO
N3143 2.215 FREE NO
N3145 2.089 FREE NO
N3148 5.896 FREE NO
N3150 2.210 FREE NO
N3152 6.968 FREE NO
N3154 6.757 FREE NO
N3155 6.795 FREE NO
N3157 5.117 FREE NO
N3159 5.174 FREE NO
N3161 4.594 FREE NO
N3165 4.999 FREE NO
N3167 3.265 FREE NO
N3169 2.995 FREE NO
N3171 2.029 FREE NO
N3173 2.123 FREE NO
N3176 2.432 FREE NO
N3178 3.327 FREE NO
N3180 1.799 FREE NO
N3182 2.224 FREE NO
N3184 2.521 FREE NO
N3186 2.962 FREE NO
N3188 1.818 FREE NO
N3190 1.508 FREE NO
N3192 1.579 FREE NO
N3194 1.568 FREE NO
N3196 1.818 FREE NO
N3198 2.288 FREE NO
N3200 2.032 FREE NO
N3202 2.508 FREE NO
N3204 3.301 FREE NO
N3206 2.653 FREE NO
N3208 2.468 FREE NO
N3210 2.436 FREE NO
N3212 2.663 FREE NO
N3214 2.603 FREE NO
N3216 2.891 FREE NO
N3218 2.509 FREE NO
N3220 2.039 FREE NO
N3222 1.932 FREE NO
N3224 2.665 FREE NO
N3226 2.874 FREE NO
N3228 2.711 FREE NO
N3230 2.602 FREE NO
N3231 1.783 FREE NO
N3233 2.063 FREE NO
N3235 1.689 FREE NO
N3237 2.293 FREE NO
N3239 1.579 FREE NO
N3242 2.084 FREE NO
N3244 1.777 FREE NO
N3247 6.235 FREE NO
N3249 2.882 FREE NO
N3251 3.067 FREE NO
N3253 2.529 FREE NO
N3255 3.780 FREE NO
N3261 3.371 FREE NO
N3263 2.631 FREE NO
N3265 3.501 FREE NO
N3267 3.279 FREE NO
N3269 3.913 FREE NO
N3271 3.206 FREE NO
N3273 2.021 FREE NO
N3275 1.352 FREE NO
N3277 1.555 FREE NO
N3279 1.901 FREE NO
N3281 2.200 FREE NO
N3283 1.883 FREE NO
N3285 1.959 FREE NO
N3289 5.847 FREE NO
N3292 4.257 FREE NO
N3294 2.176 FREE NO
N3298 1.236 FREE NO
N3301 3.057 FREE NO
N3303 3.503 FREE NO
N3305 2.477 FREE NO
N3307 2.705 FREE NO
N3309 2.630 FREE NO
N3311 3.344 FREE NO
N3312 2.630 FREE NO
N3315 2.123 FREE NO
N3317 5.689 FREE NO
N3319 2.085 FREE NO
N3321 2.365 FREE NO
N3323 3.065 FREE NO
N3325 2.665 FREE NO
N3327 2.756 FREE NO
N3331 2.651 FREE NO
N3332 2.723 FREE NO
N3334 2.707 FREE NO
N3336 2.006 FREE NO
N3338 3.056 FREE NO
N3340 2.198 FREE NO
N3342 2.935 FREE NO
N3346 2.397 FREE NO
N3350 2.562 FREE NO
N3351 2.360 FREE NO
N3353 2.778 FREE NO
N3355 2.441 FREE NO
N3357 2.770 FREE NO
N3359 2.967 FREE NO
N3361 3.130 FREE NO
N3363 2.292 FREE NO
N3365 2.587 FREE NO
N3367 2.402 FREE NO
N3369 2.937 FREE NO
N3371 2.117 FREE NO
N3373 2.964 FREE NO
N3375 2.919 FREE NO
N3377 2.588 FREE NO
N3379 2.472 FREE NO
N3385 2.739 FREE NO
N3387 2.633 FREE NO
N3389 2.497 FREE NO
N3393 2.696 FREE NO
N3395 2.581 FREE NO
N3397 2.797 FREE NO
N3399 2.582 FREE NO
N3400 3.331 FREE NO
N3402 2.920 FREE NO
N3405 2.895 FREE NO
N3407 2.674 FREE NO
N3409 3.329 FREE NO
N3411 3.329 FREE NO
N3413 3.035 FREE NO
N3415 4.761 FREE NO
N3417 5.434 FREE NO
N3420 5.402 FREE NO
N3422 5.995 FREE NO
N3424 4.738 FREE NO
N3430 4.535 FREE NO
N3432 3.369 FREE NO
N3436 2.894 FREE NO
N3438 2.904 FREE NO
N3440 2.835 FREE NO
N3442 2.822 FREE NO
N3444 3.013 FREE NO
N3447 3.521 FREE NO
N3449 2.974 FREE NO
N3451 3.471 FREE NO
N3453 3.652 FREE NO
N3456 3.315 FREE NO
N3461 3.977 FREE NO
N3463 3.870 FREE NO
N3465 3.940 FREE NO
N3467 4.324 FREE NO
N3469 3.640 FREE NO
N3471 4.006 FREE NO
N3474 3.476 FREE NO
N3476 3.229 FREE NO
N3478 3.854 FREE NO
N3480 3.221 FREE NO
N3482 3.685 FREE NO
N3484 3.499 FREE NO
N3488 3.834 FREE NO
N3490 3.707 FREE NO
N3492 3.232 FREE NO
N3494 3.808 FREE NO
N3496 2.673 FREE NO
N3497 2.944 FREE NO
N3499 3.749 FREE NO
N3501 2.135 FREE NO
N3503 2.930 FREE NO
N3505 3.248 FREE NO
N3508 2.959 FREE NO
N3510 2.664 FREE NO
N3512 3.342 FREE NO
N3514 3.053 FREE NO
N3516 3.371 FREE NO
N3518 2.904 FREE NO
N3520 3.925 FREE NO
N3522 3.267 FREE NO
N3524 3.996 FREE NO
N3526 2.602 FREE NO
N3528 2.839 FREE NO
N3529 3.549 FREE NO
N3534 2.872 FREE NO
N3537 3.272 FREE NO
N3539 3.250 FREE NO
N3541 3.010 FREE NO
N3543 4.005 FREE NO
N3545 3.538 FREE NO
N3547 2.922 FREE NO
N3549 3.388 FREE NO
N3551 3.260 FREE NO
N3553 3.103 FREE NO
N3555 2.948 FREE NO
N3558 2.558 FREE NO
N3560 3.053 FREE NO
N3562 3.711 FREE NO
N3564 2.584 FREE NO
N3566 2.996 FREE NO
N3568 3.368 FREE NO
N3569 3.147 FREE NO
N3571 3.752 FREE NO
N3573 3.763 FREE NO
N3575 4.274 FREE NO
N3577 4.127 FREE NO
N3578 3.193 FREE NO
N3581 5.112 FREE NO
N3583 5.694 FREE NO
N3585 5.551 FREE NO
N3587 5.289 FREE NO
N3589 5.621 FREE NO
N3591 5.945 FREE NO
N3596 4.378 FREE NO
N3598 4.503 FREE NO
N3600 5.245 FREE NO
N3603 5.220 FREE NO
N3607 5.172 FREE NO
N3609 6.169 FREE NO
N3611 6.088 FREE NO
N3613 4.991 FREE NO
N3615 5.691 FREE NO
N3617 5.645 FREE NO
N3619 5.694 FREE NO
N3620 5.762 FREE NO
N3622 5.740 FREE NO
N3625 6.116 FREE NO
N3627 6.010 FREE NO
N3629 6.997 FREE NO
N3632 4.397 FREE NO
N3634 5.664 FREE NO
N3637 5.619 FREE NO
N3639 5.692 FREE NO
N3642 5.957 FREE NO
N3644 5.868 FREE NO
N3646 7.416 FREE NO
N3647 5.949 FREE NO
N3649 6.994 FREE NO
N3654 4.540 FREE NO
N3656 4.236 FREE NO
N3658 4.066 FREE NO
N3660 4.589 FREE NO
N3662 4.268 FREE NO
N3663 4.531 FREE NO
N3664 4.531 FREE NO
N3666 4.413 FREE NO
N3668 6.131 FREE NO
N3670 6.103 FREE NO
N3672 4.192 FREE NO
N3674 4.485 FREE NO
N3676 4.887 FREE NO
N3677 4.998 FREE NO
N3679 5.174 FREE NO
N3680 4.972 FREE NO
N3682 4.808 FREE NO
N3684 4.611 FREE NO
N3686 4.498 FREE NO
N3687 4.431 FREE NO
N3689 4.715 FREE NO
N3690 4.321 FREE NO
N3692 5.799 FREE NO
N3694 5.663 FREE NO
N3697 5.270 FREE NO
N3699 4.653 FREE NO
N3701 4.999 FREE NO
N3703 4.568 FREE NO
N3704 4.932 FREE NO
N3707 4.794 FREE NO
N3711 5.166 FREE NO
N3713 4.352 FREE NO
N3715 5.984 FREE NO
N3716 4.579 FREE NO
N3718 4.218 FREE NO
N3720 4.535 FREE NO
N3722 3.837 FREE NO
N3725 3.647 FREE NO
N3727 3.985 FREE NO
N3729 3.089 FREE NO
N3731 4.680 FREE NO
N3732 2.270 FREE NO
N3735 2.391 FREE NO
N3737 2.198 FREE NO
N3739 2.543 FREE NO
N3741 3.065 FREE NO
N3743 3.124 FREE NO
N3745 3.015 FREE NO
N3747 3.205 FREE NO
N3749 3.559 FREE NO
N3751 3.025 FREE NO
N3753 3.127 FREE NO
N3755 3.356 FREE NO
N3757 3.459 FREE NO
N3759 3.345 FREE NO
N3761 3.335 FREE NO
N3763 3.201 FREE NO
N3765 3.136 FREE NO
N3766 2.842 FREE NO
N3769 3.267 FREE NO
N3771 3.345 FREE NO
N3773 2.772 FREE NO
N3776 3.172 FREE NO
N3780 4.041 FREE NO
N3782 3.355 FREE NO
N3784 3.313 FREE NO
N3786 3.424 FREE NO
N3788 2.926 FREE NO
N3790 3.565 FREE NO
N3792 2.187 FREE NO
N3795 2.772 FREE NO
N3800 3.223 FREE NO
N3802 2.655 FREE NO
N3804 3.244 FREE NO
N3806 1.671 FREE NO
N3808 2.197 FREE NO
N3810 2.181 FREE NO
N3812 2.250 FREE NO
N3814 2.307 FREE NO
N3815 2.537 FREE NO
N3818 2.531 FREE NO
N3820 2.558 FREE NO
N3827 2.323 FREE NO
N3829 2.496 FREE NO
N3831 2.551 FREE NO
N3833 2.882 FREE NO
N3835 2.985 FREE NO
N3837 2.944 FREE NO
N3839 2.802 FREE NO
N3840 2.376 FREE NO
N3843 2.739 FREE NO
N3845 2.988 FREE NO
N3847 2.673 FREE NO
N3849 2.220 FREE NO
N3851 6.183 FREE NO
N3853 5.169 FREE NO
N3856 6.023 FREE NO
N3858 5.431 FREE NO
N3860 5.659 FREE NO
N3862 5.446 FREE NO
N3866 2.123 FREE NO
N3868 2.527 FREE NO
N3872 2.472 FREE NO
N3874 3.052 FREE NO
N3876 2.329 FREE NO
N3878 2.744 FREE NO
N3881 2.746 FREE NO
N3883 2.917 FREE NO
N3885 3.306 FREE NO
N3887 2.945 FREE NO
N3889 2.806 FREE NO
N3895 3.157 FREE NO
N3899 3.013 FREE NO
N3900 3.002 FREE NO
N3902 3.316 FREE NO
N3904 3.342 FREE NO
N3906 3.270 FREE NO
N3908 2.478 FREE NO
N3912 4.245 FREE NO
N3914 3.661 FREE NO
N3916 2.578 FREE NO
N3917 2.511 FREE NO
N3919 2.527 FREE NO
N3921 2.723 FREE NO
N3923 3.078 FREE NO
N3925 2.532 FREE NO
N3927 1.910 FREE NO
N3929 3.374 FREE NO
N3931 2.705 FREE NO
N3933 3.351 FREE NO
N3935 3.451 FREE NO
N3937 2.145 FREE NO
N3939 1.729 FREE NO
N3941 2.181 FREE NO
N3942 2.687 FREE NO
N3945 2.830 FREE NO
N3947 3.102 FREE NO
N3949 3.511 FREE NO
N3950 3.438 FREE NO
N3953 3.185 FREE NO
N3955 3.453 FREE NO
N3957 3.830 FREE NO
N3959 3.496 FREE NO
N3963 3.421 FREE NO
N3965 4.321 FREE NO
N3967 4.978 FREE NO
N3969 1.961 FREE NO
N3971 2.344 FREE NO
N3973 3.668 FREE NO
N3975 3.851 FREE NO
N3976 4.103 FREE NO
N3984 1.997 FREE NO
N3988 2.245 FREE NO
N3990 2.388 FREE NO
N3992 2.745 FREE NO
N3994 2.723 FREE NO
N3996 2.614 FREE NO
N3999 2.232 FREE NO
N4001 2.594 FREE NO
N4003 1.898 FREE NO
N4005 2.711 FREE NO
N4007 3.263 FREE NO
N4010 2.407 FREE NO
N4012 3.285 FREE NO
N4014 3.200 FREE NO
N4016 2.550 FREE NO
N4018 2.030 FREE NO
N4020 3.150 FREE NO
N4021 5.676 FREE NO
N4022 3.352 FREE NO
N4024 3.019 FREE NO
N4026 3.654 FREE NO
N4030 2.996 FREE NO
N4033 3.512 FREE NO
N4035 3.422 FREE NO
N4037 3.360 FREE NO
N4039 3.515 FREE NO
N4041 4.204 FREE NO
N4046 4.094 FREE NO
N4049 4.592 FREE NO
N4051 4.529 FREE NO
N4053 3.608 FREE NO
N4055 3.591 FREE NO
N4057 3.924 FREE NO
N4058 4.539 FREE NO
N4060 3.429 FREE NO
N4062 4.017 FREE NO
N4064 4.468 FREE NO
N4066 3.808 FREE NO
N4072 3.093 FREE NO
N4074 3.297 FREE NO
N4076 3.828 FREE NO
N4078 3.453 FREE NO
N4080 3.158 FREE NO
N4082 3.119 FREE NO
N4086 2.746 FREE NO
N4092 4.166 FREE NO
N4094 4.750 FREE NO
N4095 4.715 FREE NO
N4099 5.007 FREE NO
N4101 5.297 FREE NO
N4103 4.991 FREE NO
N4105 5.376 FREE NO
N4107 5.502 FREE NO
N4109 5.351 FREE NO
N4111 5.210 FREE NO
N4113 5.594 FREE NO
N4115 5.033 FREE NO
N4117 5.287 FREE NO
N4119 5.228 FREE NO
N4121 4.460 FREE NO
N4123 4.023 FREE NO
N4125 2.760 FREE NO
N4127 3.881 FREE NO
N4129 4.285 FREE NO
N4131 3.151 FREE NO
N4133 3.262 FREE NO
N4135 3.857 FREE NO
N4137 5.114 FREE NO
N4139 4.778 FREE NO
N4141 5.123 FREE NO
N4143 3.780 FREE NO
N4147 4.341 FREE NO
N4149 2.642 FREE NO
N4150 2.287 FREE NO
N4152 2.217 FREE NO
N4155 1.787 FREE NO
N4157 2.157 FREE NO
N4159 1.396 FREE NO
N4161 2.138 FREE NO
N4163 2.279 FREE NO
N4169 2.447 FREE NO
N4171 2.999 FREE NO
N4173 2.814 FREE NO
N4176 1.728 FREE NO
N4178 2.495 FREE NO
N4180 5.181 FREE NO
N4182 4.644 FREE NO
N4184 4.878 FREE NO
N4187 4.331 FREE NO
N4190 4.537 FREE NO
N4192 3.308 FREE NO
N4195 4.911 FREE NO
N4197 6.130 FREE NO
N4200 5.150 FREE NO
N4202 5.281 FREE NO
N4205 5.138 FREE NO
N4207 4.878 FREE NO
N4209 3.600 FREE NO
N4212 4.980 FREE NO
N4215 3.540 FREE NO
N4219 5.056 FREE NO
N4223 3.267 FREE NO
N4227 3.422 FREE NO
N4230 3.723 FREE NO
N4232 3.831 FREE NO
N4235 3.863 FREE NO
N4241 3.297 FREE NO
N4244 3.122 FREE NO
N4246 2.599 FREE NO
N4249 3.973 FREE NO
N4254 4.825 FREE NO
N4256 4.628 FREE NO
N4259 5.028 FREE NO
N4261 4.666 FREE NO
N4265 2.939 FREE NO
N4270 2.670 FREE NO
N4273 2.537 FREE NO
N4277 2.547 FREE NO
N4279 2.583 FREE NO
N4281 2.003 FREE NO
N4283 2.160 FREE NO
N4285 1.985 FREE NO
N4287 2.078 FREE NO
N4289 2.367 FREE NO
N4291 2.136 FREE NO
N4295 1.625 FREE NO
N4296 -0.927 FREE NO
N4298 -0.927 FREE NO
N4303 1.928 FREE NO
N4305 1.885 FREE NO
N4307 1.725 FREE NO
N4311 2.935 FREE NO
N4314 2.433 FREE NO
N4316 3.065 FREE NO
N4318 2.840 FREE NO
N4321 2.908 FREE NO
N4324 3.210 FREE NO
N4326 2.881 FREE NO
N4328 2.881 FREE NO
N4330 3.044 FREE NO
N4332 2.881 FREE NO
N4338 2.695 FREE NO
N4341 1.550 FREE NO
N4344 1.474 FREE NO
N4346 1.948 FREE NO
N4348 1.558 FREE NO
N4350 1.829 FREE NO
N4352 2.376 FREE NO
N4356 1.922 FREE NO
N4359 1.792 FREE NO
N4362 2.202 FREE NO
N4364 2.714 FREE NO
N4365 2.484 FREE NO
N4366 2.484 FREE NO
N4368 2.561 FREE NO
N4371 2.999 FREE NO
N4373 3.074 FREE NO
N4376 4.912 FREE NO
N4378 5.795 FREE NO
N4381 5.261 FREE NO
N4383 3.753 FREE NO
N4385 3.385 FREE NO
N4387 4.790 FREE NO
N4390 5.689 FREE NO
N4391 4.407 FREE NO
N4395 3.808 FREE NO
N4397 4.374 FREE NO
N4399 6.211 FREE NO
N4402 6.923 FREE NO
N4407 3.350 FREE NO
N4409 6.204 FREE NO
N4411 6.722 FREE NO
N4413 7.272 FREE NO
N4415 6.359 FREE NO
N4419 2.694 FREE NO
N4421 2.451 FREE NO
N4423 2.159 FREE NO
N4425 1.937 FREE NO
N4427 1.912 FREE NO
N4429 1.920 FREE NO
N4430 2.082 FREE NO
N4432 2.082 FREE NO
N4438 1.990 FREE NO
N4441 1.771 FREE NO
N4443 2.016 FREE NO
N4447 2.194 FREE NO
N4451 2.176 FREE NO
N4452 2.295 FREE NO
N4454 2.740 FREE NO
N4455 2.695 FREE NO
N4458 2.351 FREE NO
N4460 2.764 FREE NO
N4462 2.462 FREE NO
N4464 1.407 FREE NO
N4466 2.100 FREE NO
N4467 2.425 FREE NO
N4469 2.425 FREE NO
N4471 2.336 FREE NO
N4473 2.310 FREE NO
N4475 1.994 FREE NO
N4477 1.888 FREE NO
N4479 1.609 FREE NO
N4480 2.736 FREE NO
N4481 3.857 FREE NO
N4483 3.806 FREE NO
N4485 8.165 FREE NO
N4487 10.100 FREE NO
N4489 6.439 FREE NO
N4491 8.186 FREE NO
N4493 8.496 FREE NO
N4495 4.257 FREE NO
N4501 7.345 FREE NO
N4503 1.903 FREE NO
N4505 1.499 FREE NO
N4507 2.417 FREE NO
N4509 2.576 FREE NO
N4511 2.527 FREE NO
N4513 2.743 FREE NO
N4515 2.717 FREE NO
N4517 2.636 FREE NO
N4519 2.757 FREE NO
N4521 2.818 FREE NO
N4523 2.427 FREE NO
N4525 2.290 FREE NO
N4529 2.446 FREE NO
N4531 2.404 FREE NO
N4533 2.644 FREE NO
N4535 2.769 FREE NO
N4537 2.665 FREE NO
N4539 2.560 FREE NO
N4541 2.381 FREE NO
N4543 2.216 FREE NO
N4547 2.488 FREE NO
N4554 1.942 FREE NO
N4555 2.005 FREE NO
N4558 1.678 FREE NO
N4560 5.411 FREE NO
N4562 3.546 FREE NO
N4564 2.019 FREE NO
N4566 2.547 FREE NO
N4568 2.752 FREE NO
N4570 2.572 FREE NO
N4575 1.941 FREE NO
N4577 2.336 FREE NO
N4579 2.252 FREE NO
N4581 3.475 FREE NO
N4583 3.613 FREE NO
N4585 3.632 FREE NO
N4587 3.493 FREE NO
N4589 6.149 FREE NO
N4591 5.983 FREE NO
N4593 6.015 FREE NO
N4596 4.976 FREE NO
N4598 2.799 FREE NO
N4604 2.860 FREE NO
N4606 2.579 FREE NO
N4608 3.006 FREE NO
N4610 2.377 FREE NO
N4612 3.959 FREE NO
N4615 1.443 FREE NO
N4619 0.884 FREE NO
N4621 2.244 FREE NO
N4628 1.060 FREE NO
N4630 1.538 FREE NO
N4632 2.102 FREE NO
N4635 2.025 FREE NO
N4637 1.947 FREE NO
N4639 1.717 FREE NO
N4641 4.017 FREE NO
N4643 2.411 FREE NO
N4645 2.146 FREE NO
N4646 1.115 FREE NO
N4648 2.063 FREE NO
N4651 1.906 FREE NO
N4655 2.161 FREE NO
N4656 2.002 FREE NO
N4660 2.357 FREE NO
N4662 1.867 FREE NO
N4665 1.315 FREE NO
N4667 1.596 FREE NO
N4668 1.347 FREE NO
N4670 1.893 FREE NO
N4672 2.214 FREE NO
N4674 1.779 FREE NO
N4677 1.299 FREE NO
N4679 2.305 FREE NO
N4683 3.932 FREE NO
N4685 2.656 FREE NO
N4688 3.655 FREE NO
N4690 1.636 FREE NO
N4692 3.591 FREE NO
N4694 4.296 FREE NO
N4698 1.985 FREE NO
N4700 2.043 FREE NO
N4702 2.225 FREE NO
N4704 3.249 FREE NO
N4707 2.417 FREE NO
N4710 2.638 FREE NO
N4713 1.472 FREE NO
N4715 2.361 FREE NO
N4717 2.730 FREE NO
N4719 2.392 FREE NO
N4721 2.280 FREE NO
N4722 1.416 FREE NO
N4725 2.399 FREE NO
N4727 2.259 FREE NO
N4729 2.393 FREE NO
N4731 2.689 FREE NO
N4734 2.415 FREE NO
N4736 2.300 FREE NO
N4738 2.217 FREE NO
N4740 2.105 FREE NO
N4742 1.730 FREE NO
N4744 2.480 FREE NO
N4746 2.263 FREE NO
N4748 1.939 FREE NO
N4750 2.126 FREE NO
N4752 2.664 FREE NO
N4754 1.848 FREE NO
N4757 2.658 FREE NO
N4759 2.557 FREE NO
N4761 1.945 FREE NO
N4763 1.665 FREE NO
N4765 1.558 FREE NO
N4767 1.350 FREE NO
N4769 1.574 FREE NO
N4772 2.088 FREE NO
N4775 2.150 FREE NO
N4777 1.444 FREE NO
N4782 1.349 FREE NO
N4784 1.440 FREE NO
N4786 1.350 FREE NO
N4788 0.631 FREE NO
N4794 1.790 FREE NO
N4798 2.606 FREE NO
N4799 1.971 FREE NO
N4802 1.442 FREE NO
N4804 1.870 FREE NO
N4805 1.978 FREE NO
N4807 2.426 FREE NO
N4812 1.303 FREE NO
N4814 2.005 FREE NO
N4816 2.246 FREE NO
N4817 2.330 FREE NO
N4818 2.073 FREE NO
N4820 8.837 FREE NO
N4822 8.704 FREE NO
N4824 9.567 FREE NO
N4826 2.251 FREE NO
N4829 2.564 FREE NO
N4831 3.120 FREE NO
N4833 3.077 FREE NO
N4835 2.651 FREE NO
N4837 2.969 FREE NO
N4840 3.314 FREE NO
N4842 3.358 FREE NO
N4843 3.794 FREE NO
N4845 2.156 FREE NO
N4847 3.014 FREE NO
N4849 2.539 FREE NO
N4850 2.206 FREE NO
N4852 3.068 FREE NO
N4854 3.542 FREE NO
N4856 2.851 FREE NO
N4858 2.843 FREE NO
N4860 2.086 FREE NO
N4862 3.118 FREE NO
N4866 2.601 FREE NO
N4868 2.727 FREE NO
N4870 3.127 FREE NO
N4875 2.655 FREE NO
N4877 1.708 FREE NO
N4879 3.224 FREE NO
N4880 3.231 FREE NO
N4882 3.314 FREE NO
N4884 3.923 FREE NO
N4889 4.054 FREE NO
N4891 2.498 FREE NO
N4897 3.800 FREE NO
N4901 4.690 FREE NO
N4903 4.721 FREE NO
N4905 5.094 FREE NO
N4907 4.352 FREE NO
N4913 4.245 FREE NO
N4916 2.133 FREE NO
N4919 3.628 FREE NO
N4920 2.133 FREE NO
N4922 2.133 FREE NO
N4924 4.257 FREE NO
N4926 3.915 FREE NO
N4928 4.215 FREE NO
N4930 3.788 FREE NO
N4932 5.674 FREE NO
N4934 5.330 FREE NO
N4936 5.072 FREE NO
N4938 3.844 FREE NO
N4940 3.785 FREE NO
N4944 2.966 FREE NO
N4948 3.596 FREE NO
N4952 3.966 FREE NO
N4954 3.458 FREE NO
N4956 3.877 FREE NO
N4958 3.972 FREE NO
N4960 2.966 FREE NO
N4962 3.452 FREE NO
N4964 3.384 FREE NO
N4966 4.395 FREE NO
N4968 4.395 FREE NO
N4970 4.329 FREE NO
N4972 3.691 FREE NO
N4974 1.676 FREE NO
N4976 3.648 FREE NO
N4984 10.185 FREE NO
N4986 10.325 FREE NO
N4993 11.025 FREE NO
N5000 9.248 FREE NO
N5002 10.428 FREE NO
N5004 11.125 FREE NO
N5006 10.625 FREE NO
N5008 10.625 FREE NO
N5010 10.115 FREE NO
N5016 10.254 FREE NO
N5018 10.186 FREE NO
N5020 10.025 FREE NO
N5022 10.143 FREE NO
N5024 10.143 FREE NO
N5027 9.864 FREE NO
N5029 10.378 FREE NO
N5031 10.283 FREE NO
N5037 10.378 FREE NO
N5038 9.498 FREE NO
N5040 11.024 FREE NO
N5043 9.881 FREE NO
N5045 9.983 FREE NO
N5046 10.029 FREE NO
N5047 10.448 FREE NO
N5051 10.572 FREE NO
N5053 9.524 FREE NO
N5055 9.574 FREE NO
N5057 9.954 FREE NO
N5059 10.110 FREE NO
N5060 9.021 FREE NO
N5063 6.836 FREE NO
N5065 7.023 FREE NO
N5067 6.951 FREE NO
N5074 5.781 FREE NO
N5076 6.687 FREE NO
N5078 6.520 FREE NO
N5082 6.217 FREE NO
N5083 6.479 FREE NO
N5086 5.405 FREE NO
N5088 6.698 FREE NO
N5090 6.225 FREE NO
N5097 6.417 FREE NO
N5099 6.070 FREE NO
N5101 6.565 FREE NO
N5103 6.535 FREE NO
N5105 7.050 FREE NO
N5107 5.812 FREE NO
N5109 6.503 FREE NO
N5111 6.362 FREE NO
N5113 6.736 FREE NO
N5115 6.776 FREE NO
N5117 6.672 FREE NO
N5119 7.117 FREE NO
N5121 6.536 FREE NO
N5123 6.796 FREE NO
N5125 7.152 FREE NO
N5126 7.176 FREE NO
N5127 7.031 FREE NO
N5129 6.926 FREE NO
N5131 6.991 FREE NO
N5133 6.904 FREE NO
N5136 5.196 FREE NO
N5139 6.294 FREE NO
N5142 6.807 FREE NO
N5144 6.791 FREE NO
N5147 6.623 FREE NO
N5150 6.349 FREE NO
N5152 5.907 FREE NO
N5154 6.093 FREE NO
N5156 5.272 FREE NO
N5159 5.350 FREE NO
N5161 4.581 FREE NO
N5163 4.581 FREE NO
N5165 5.107 FREE NO
N5167 5.173 FREE NO
N5169 5.638 FREE NO
N5176 6.518 FREE NO
N5179 5.847 FREE NO
N5181 5.847 FREE NO
N5188 4.518 FREE NO
N5190 4.562 FREE NO
N5192 5.102 FREE NO
N5194 4.562 FREE NO
N5196 5.011 FREE NO
N5198 4.827 FREE NO
N5202 5.886 FREE NO
N5204 6.185 FREE NO
N5206 4.111 FREE NO
N5208 4.431 FREE NO
N5210 4.479 FREE NO
N5212 4.761 FREE NO
N5214 4.158 FREE NO
N5216 4.634 FREE NO
N5218 3.764 FREE NO
N5220 4.255 FREE NO
N5223 3.808 FREE NO
N5225 4.114 FREE NO
N5227 4.360 FREE NO
N5229 3.758 FREE NO
N5232 4.340 FREE NO
N5234 4.187 FREE NO
N5236 4.238 FREE NO
N5238 5.423 FREE NO
N5240 4.671 FREE NO
N5242 3.785 FREE NO
N5244 4.067 FREE NO
N5245 5.707 FREE NO
N5248 5.634 FREE NO
N5250 4.487 FREE NO
N5252 4.929 FREE NO
N5254 5.205 FREE NO
N5255 4.930 FREE NO
N5258 4.225 FREE NO
N5260 5.568 FREE NO
N5262 3.064 FREE NO
N5264 10.970 FREE NO
N5266 11.661 FREE NO
N5268 11.680 FREE NO
N5270 11.242 FREE NO
N5272 11.570 FREE NO
N5274 11.775 FREE NO
N5276 11.605 FREE NO
N5278 11.283 FREE NO
N5281 11.576 FREE NO
N5285 11.738 FREE NO
N5291 12.524 FREE NO
N5293 11.813 FREE NO
N5295 11.757 FREE NO
N5297 10.960 FREE NO
N5299 11.635 FREE NO
N5301 11.337 FREE NO
N5303 11.414 FREE NO
N5305 11.687 FREE NO
N5307 11.378 FREE NO
N5309 11.466 FREE NO
N5311 11.378 FREE NO
N5313 11.381 FREE NO
N5317 12.165 FREE NO
N5319 11.974 FREE NO
N5321 12.165 FREE NO
N5324 11.629 FREE NO
N5326 11.750 FREE NO
N5328 12.743 FREE NO
N5329 11.006 FREE NO
N5331 11.785 FREE NO
N5333 11.230 FREE NO
N5337 12.038 FREE NO
N5339 11.627 FREE NO
N5341 12.763 FREE NO
N5343 11.234 FREE NO
N5345 11.762 FREE NO
N5347 11.840 FREE NO
N5350 11.566 FREE NO
N5352 12.032 FREE NO
N5354 11.992 FREE NO
N5356 11.882 FREE NO
N5358 11.750 FREE NO
N5359 12.237 FREE NO
N5361 11.879 FREE NO
N5363 11.136 FREE NO
N5365 11.136 FREE NO
N5367 11.110 FREE NO
N5369 10.746 FREE NO
N5371 10.859 FREE NO
N5373 10.764 FREE NO
N5375 10.253 FREE NO
N5377 11.255 FREE NO
N5382 11.254 FREE NO
N5384 10.855 FREE NO
N5386 10.023 FREE NO
N5387 10.857 FREE NO
N5393 10.744 FREE NO
N5396 11.119 FREE NO
N5398 10.749 FREE NO
N5400 10.510 FREE NO
N5403 10.624 FREE NO
N5405 10.659 FREE NO
N5407 10.652 FREE NO
N5409 10.533 FREE NO
N5411 10.835 FREE NO
N5413 9.558 FREE NO
N5414 10.863 FREE NO
N5416 10.431 FREE NO
N5419 12.061 FREE NO
N5422 12.917 FREE NO
N5423 11.665 FREE NO
N5425 12.289 FREE NO
N5427 11.284 FREE NO
N5429 10.436 FREE NO
N5432 12.563 FREE NO
N5434 12.623 FREE NO
N5436 12.908 FREE NO
N5438 13.193 FREE NO
N5440 12.988 FREE NO
N5442 12.710 FREE NO
N5444 12.382 FREE NO
N5446 11.963 FREE NO
N5449 11.728 FREE NO
N5451 12.472 FREE NO
N5453 11.678 FREE NO
N5455 11.689 FREE NO
N5457 12.287 FREE NO
N5459 12.502 FREE NO
N5462 12.592 FREE NO
N5464 13.068 FREE NO
N5466 11.627 FREE NO
N5468 12.355 FREE NO
N5470 11.836 FREE NO
N5474 12.495 FREE NO
N5476 12.840 FREE NO
N5478 12.350 FREE NO
N5480 12.900 FREE NO
N5482 13.381 FREE NO
N5484 13.608 FREE NO
N5486 12.947 FREE NO
N5488 12.947 FREE NO
N5490 13.122 FREE NO
N5492 13.637 FREE NO
N5494 13.608 FREE NO
N5495 13.213 FREE NO
N5498 9.358 FREE NO
N5503 9.501 FREE NO
N5504 9.108 FREE NO
N5507 9.248 FREE NO
N5509 8.287 FREE NO
N5511 8.730 FREE NO
N5513 9.102 FREE NO
N5515 9.319 FREE NO
N5517 9.825 FREE NO
N5521 10.913 FREE NO
N5524 11.241 FREE NO
N5526 11.897 FREE NO
N5527 11.090 FREE NO
N5529 11.706 FREE NO
N5531 11.389 FREE NO
N5533 11.263 FREE NO
N5535 11.911 FREE NO
N5537 11.358 FREE NO
N5538 10.511 FREE NO
N5544 9.564 FREE NO
N5546 10.618 FREE NO
N5548 10.640 FREE NO
N5550 10.161 FREE NO
N5552 10.231 FREE NO
N5553 10.289 FREE NO
N5554 8.040 FREE NO
N5558 7.689 FREE NO
N5560 8.588 FREE NO
N5564 8.928 FREE NO
N5565 7.936 FREE NO
N5570 8.653 FREE NO
N5572 5.284 FREE NO
N5574 5.620 FREE NO
N5578 6.604 FREE NO
N5580 7.680 FREE NO
N5581 8.190 FREE NO
N5584 8.377 FREE NO
N5587 9.145 FREE NO
N5589 10.502 FREE NO
N5591 10.601 FREE NO
N5593 11.116 FREE NO
N5596 9.790 FREE NO
N5598 11.671 FREE NO
N5600 11.232 FREE NO
N5602 10.427 FREE NO
N5604 10.938 FREE NO
N5606 10.892 FREE NO
N5608 11.481 FREE NO
N5610 10.986 FREE NO
N5612 10.915 FREE NO
N5614 11.160 FREE NO
N5619 11.504 FREE NO
N5621 10.952 FREE NO
N5623 11.527 FREE NO
N5629 11.018 FREE NO
N5633 10.540 FREE NO
N5635 11.412 FREE NO
N5636 11.509 FREE NO
N5639 12.211 FREE NO
N5641 11.828 FREE NO
N5643 11.942 FREE NO
N5645 9.580 FREE NO
N5647 9.680 FREE NO
N5649 9.538 FREE NO
N5651 9.740 FREE NO
N5653 9.813 FREE NO
N5655 10.130 FREE NO
N5659 10.479 FREE NO
N5663 8.083 FREE NO
N5665 8.966 FREE NO
N5667 8.761 FREE NO
N5669 9.039 FREE NO
N5671 7.221 FREE NO
N5673 10.825 FREE NO
N5676 11.837 FREE NO
N5678 11.837 FREE NO
N5680 8.407 FREE NO
N5682 8.181 FREE NO
N5684 7.384 FREE NO
N5686 5.385 FREE NO
N5691 13.148 FREE NO
N5694 13.303 FREE NO
N5696 12.912 FREE NO
N5698 12.901 FREE NO
N5699 12.407 FREE NO
N5704 12.300 FREE NO
N5706 12.989 FREE NO
N5708 12.650 FREE NO
N5711 13.721 FREE NO
N5713 13.738 FREE NO
N5716 12.374 FREE NO
N5718 12.352 FREE NO
N5724 11.843 FREE NO
N5725 11.732 FREE NO
N5728 12.275 FREE NO
N5730 12.528 FREE NO
N5732 12.497 FREE NO
N5733 8.008 FREE NO
N5734 11.837 FREE NO
N5735 13.273 FREE NO
N5737 11.617 FREE NO
N5741 13.288 FREE NO
N5743 13.262 FREE NO
N5745 13.028 FREE NO
N5747 11.781 FREE NO
N5749 12.687 FREE NO
N5751 12.625 FREE NO
N5754 12.584 FREE NO
N5758 12.339 FREE NO
N5760 12.897 FREE NO
N5762 13.937 FREE NO
N5764 13.640 FREE NO
N5768 11.008 FREE NO
N5770 11.225 FREE NO
N5772 11.119 FREE NO
N5774 10.534 FREE NO
N5776 12.914 FREE NO
N5778 13.038 FREE NO
N5780 12.065 FREE NO
N5782 11.737 FREE NO
N5784 10.270 FREE NO
N5786 10.409 FREE NO
N5788 11.984 FREE NO
N5790 10.040 FREE NO
N5792 11.401 FREE NO
N5794 9.948 FREE NO
N5796 9.988 FREE NO
N5798 10.398 FREE NO
N5800 10.570 FREE NO
N5803 8.150 FREE NO
N5805 8.792 FREE NO
N5807 9.020 FREE NO
N5809 8.462 FREE NO
N5812 8.597 FREE NO
N5814 8.768 FREE NO
N5816 8.803 FREE NO
N5818 9.237 FREE NO
N5822 8.442 FREE NO
N5824 9.035 FREE NO
N5826 9.983 FREE NO
N5828 10.713 FREE NO
N5830 9.682 FREE NO
N5833 9.590 FREE NO
N5835 9.768 FREE NO
N5836 11.564 FREE NO
N5838 9.690 FREE NO
N5839 10.066 FREE NO
N5842 10.594 FREE NO
N5844 9.463 FREE NO
N5846 9.812 FREE NO
N5848 8.751 FREE NO
N5852 8.924 FREE NO
N5854 9.064 FREE NO
N5857 9.197 FREE NO
N5859 7.088 FREE NO
N5861 9.878 FREE NO
N5863 8.283 FREE NO
N5865 8.480 FREE NO
N5867 7.317 FREE NO
N5869 8.465 FREE NO
N5871 7.317 FREE NO
N5873 7.504 FREE NO
N5877 4.715 FREE NO
N5880 7.212 FREE NO
N5882 7.841 FREE NO
N5884 6.616 FREE NO
N5886 6.785 FREE NO
N5888 6.661 FREE NO
N5890 5.908 FREE NO
N5891 7.061 FREE NO
N5894 7.439 FREE NO
N5896 7.070 FREE NO
N5899 7.984 FREE NO
N5901 6.786 FREE NO
N5903 5.458 FREE NO
N5905 5.563 FREE NO
N5908 5.478 FREE NO
N5914 5.453 FREE NO
N5916 6.081 FREE NO
N5918 6.423 FREE NO
N5920 5.458 FREE NO
N5922 5.683 FREE NO
N5924 5.306 FREE NO
N5926 5.313 FREE NO
N5928 5.917 FREE NO
N5930 6.468 FREE NO
N5932 5.975 FREE NO
N5934 5.771 FREE NO
N5936 5.913 FREE NO
N5938 6.132 FREE NO
N5940 6.593 FREE NO
N5942 6.205 FREE NO
N5944 6.553 FREE NO
N5946 5.376 FREE NO
N5948 5.697 FREE NO
N5950 6.050 FREE NO
N5955 6.934 FREE NO
N5956 6.424 FREE NO
N5959 6.332 FREE NO
N5961 6.421 FREE NO
N5963 6.975 FREE NO
N5965 5.974 FREE NO
N5967 6.306 FREE NO
N5969 6.363 FREE NO
N5971 6.968 FREE NO
N5973 6.338 FREE NO
N5976 6.205 FREE NO
N5978 5.953 FREE NO
N5980 5.335 FREE NO
N5981 7.035 FREE NO
N5982 14.982 FREE NO
N5984 13.437 FREE NO
N5991 9.883 FREE NO
N5993 9.855 FREE NO
N5995 10.195 FREE NO
N5996 10.986 FREE NO
N6000 11.298 FREE NO
N6001 11.172 FREE NO
N6003 11.683 FREE NO
N6005 11.341 FREE NO
N6007 12.025 FREE NO
N6009 12.981 FREE NO
N6011 10.247 FREE NO
N6013 10.090 FREE NO
N6015 10.281 FREE NO
N6020 10.439 FREE NO
N6022 10.854 FREE NO
N6024 11.642 FREE NO
N6026 10.160 FREE NO
N6028 9.911 FREE NO
N6030 10.034 FREE NO
N6032 10.312 FREE NO
N6034 9.240 FREE NO
N6036 9.238 FREE NO
N6041 9.697 FREE NO
N6043 9.492 FREE NO
N6045 9.195 FREE NO
N6047 9.309 FREE NO
N6049 8.933 FREE NO
N6054 7.916 FREE NO
N6056 7.328 FREE NO
N6058 11.829 FREE NO
N6060 13.037 FREE NO
N6062 13.031 FREE NO
N6064 13.218 FREE NO
N6066 13.387 FREE NO
N6068 12.675 FREE NO
N6070 13.055 FREE NO
N6071 12.905 FREE NO
N6073 12.744 FREE NO
N6075 13.032 FREE NO
N6077 12.805 FREE NO
N6079 12.805 FREE NO
N6081 11.362 FREE NO
N6083 11.797 FREE NO
N6086 12.394 FREE NO
N6088 12.212 FREE NO
N6090 12.223 FREE NO
N6092 11.990 FREE NO
N6096 12.153 FREE NO
N6100 11.849 FREE NO
N6102 11.511 FREE NO
N6106 10.841 FREE NO
N6108 10.740 FREE NO
N6112 11.906 FREE NO
N6116 10.919 FREE NO
N6123 9.230 FREE NO
N6125 9.404 FREE NO
N6128 9.850 FREE NO
N6130 8.864 FREE NO
N6132 9.704 FREE NO
N6136 10.869 FREE NO
N6142 11.646 FREE NO
N6144 11.092 FREE NO
N6146 10.786 FREE NO
N6148 10.423 FREE NO
N6150 10.652 FREE NO
N6152 9.859 FREE NO
N6154 10.870 FREE NO
N6155 10.591 FREE NO
N6156 10.699 FREE NO
N6158 10.493 FREE NO
N6159 10.564 FREE NO
N6162 10.267 FREE NO
N6164 10.445 FREE NO
N6167 9.344 FREE NO
N6169 9.426 FREE NO
N6171 9.933 FREE NO
N6173 9.624 FREE NO
N6175 9.910 FREE NO
N6179 7.835 FREE NO
N6181 11.813 FREE NO
N6184 11.338 FREE NO
N6187 9.629 FREE NO
N6189 9.110 FREE NO
N6193 8.082 FREE NO
N6195 9.802 FREE NO
N6198 8.837 FREE NO
N6200 9.061 FREE NO
N6202 8.669 FREE NO
N6204 8.798 FREE NO
N6206 8.602 FREE NO
N6210 9.164 FREE NO
N6213 9.018 FREE NO
N6216 8.276 FREE NO
N6218 8.581 FREE NO
N6221 10.689 FREE NO
N6223 11.587 FREE NO
N6225 10.927 FREE NO
N6227 7.795 FREE NO
N6229 8.825 FREE NO
N6231 9.902 FREE NO
N6233 9.883 FREE NO
N6235 10.491 FREE NO
N6238 9.892 FREE NO
N6240 8.630 FREE NO
N6243 13.327 FREE NO
N6245 10.490 FREE NO
N6247 10.556 FREE NO
N6250 11.292 FREE NO
N6255 10.774 FREE NO
N6257 10.649 FREE NO
N6259 10.630 FREE NO
N6261 9.495 FREE NO
N6263 9.667 FREE NO
N6264 9.602 FREE NO
N6266 9.800 FREE NO
N6268 9.377 FREE NO
N6270 9.001 FREE NO
N6272 8.785 FREE NO
N6274 8.686 FREE NO
N6276 8.103 FREE NO
N6278 8.528 FREE NO
N6280 8.483 FREE NO
N6285 8.100 FREE NO
N6287 7.770 FREE NO
N6289 7.671 FREE NO
N6291 8.194 FREE NO
N6293 8.597 FREE NO
N6295 7.775 FREE NO
N6296 7.504 FREE NO
N6299 8.076 FREE NO
N6301 8.481 FREE NO
N6303 8.785 FREE NO
N6305 8.774 FREE NO
N6307 9.157 FREE NO
N6312 8.000 FREE NO
N6314 7.312 FREE NO
N6315 7.131 FREE NO
N6317 7.876 FREE NO
N6319 7.845 FREE NO
N6321 7.568 FREE NO
N6323 6.933 FREE NO
N6325 7.634 FREE NO
N6327 8.103 FREE NO
N6329 8.307 FREE NO
N6331 8.449 FREE NO
N6335 8.170 FREE NO
N6337 8.014 FREE NO
N6341 7.264 FREE NO
N6344 7.927 FREE NO
N6346 6.971 FREE NO
N6348 6.975 FREE NO
N6350 8.156 FREE NO
N6352 7.070 FREE NO
N6354 7.631 FREE NO
N6356 8.004 FREE NO
N6358 7.572 FREE NO
N6360 7.112 FREE NO
N6362 6.686 FREE NO
N6364 7.125 FREE NO
N6366 6.746 FREE NO
N6368 5.333 FREE NO
N6370 6.504 FREE NO
N6377 5.902 FREE NO
N6379 6.000 FREE NO
N6381 6.618 FREE NO
N6383 8.687 FREE NO
N6385 6.790 FREE NO
N6387 6.553 FREE NO
N6389 6.852 FREE NO
N6391 6.121 FREE NO
N6393 5.269 FREE NO
N6395 7.012 FREE NO
N6397 8.258 FREE NO
N6400 7.341 FREE NO
N6402 5.234 FREE NO
N6406 3.824 FREE NO
N6409 4.206 FREE NO
N6412 4.671 FREE NO
N6414 4.609 FREE NO
N6416 4.897 FREE NO
N6418 4.905 FREE NO
N6420 5.223 FREE NO
N6422 4.608 FREE NO
N6424 3.954 FREE NO
N6428 5.578 FREE NO
N6430 6.515 FREE NO
N6432 6.056 FREE NO
N6433 5.142 FREE NO
N6436 5.488 FREE NO
N6438 4.309 FREE NO
N6440 4.580 FREE NO
N6442 4.250 FREE NO
N6444 4.404 FREE NO
N6446 3.693 FREE NO
N6448 4.671 FREE NO
N6450 5.233 FREE NO
N6452 3.609 FREE NO
N6461 2.271 FREE NO
N6463 3.972 FREE NO
N6465 3.985 FREE NO
N6467 4.070 FREE NO
N6469 4.124 FREE NO
N6470 3.180 FREE NO
N6472 3.489 FREE NO
N6475 4.329 FREE NO
N6477 4.036 FREE NO
N6479 2.332 FREE NO
N6481 3.925 FREE NO
N6483 3.750 FREE NO
N6487 2.960 FREE NO
N6489 2.956 FREE NO
N6493 3.537 FREE NO
N6495 2.394 FREE NO
N6496 2.963 FREE NO
N6502 1.889 FREE NO
N6505 3.434 FREE NO
N6511 3.077 FREE NO
N6516 4.078 FREE NO
N6518 4.260 FREE NO
N6520 3.730 FREE NO
N6521 3.142 FREE NO
N6524 2.407 FREE NO
N6527 2.101 FREE NO
N6532 1.467 FREE NO
N6534 2.982 FREE NO
N6537 8.873 FREE NO
N6539 6.022 FREE NO
N6540 3.013 FREE NO
N6544 2.865 FREE NO
N6546 3.509 FREE NO
N6547 9.089 FREE NO
N6548 3.469 FREE NO
N6549 6.022 FREE NO
N6551 4.986 FREE NO
N6553 6.186 FREE NO
N6555 6.798 FREE NO
N6557 6.235 FREE NO
N6559 6.386 FREE NO
N6561 4.698 FREE NO
N6563 4.685 FREE NO
N6565 6.589 FREE NO
N6567 6.389 FREE NO
N6569 4.798 FREE NO
N6571 5.198 FREE NO
N6573 5.756 FREE NO
N6575 6.589 FREE NO
N6577 6.246 FREE NO
N6579 6.102 FREE NO
N6581 1.268 FREE NO
N6583 1.687 FREE NO
N6585 1.714 FREE NO
N6587 1.468 FREE NO
N6589 1.135 FREE NO
N6591 1.165 FREE NO
N6593 1.006 FREE NO
N6595 1.002 FREE NO
N6597 0.985 FREE NO
N6599 1.006 FREE NO
N6604 3.689 FREE NO
N6606 -0.128 FREE NO
N6608 4.896 FREE NO
N6611 6.356 FREE NO
N6613 3.326 FREE NO
N6618 6.593 FREE NO
N6620 8.139 FREE NO
N6622 6.453 FREE NO
N6624 2.415 FREE NO
N6626 4.146 FREE NO
N6629 3.907 FREE NO
N6631 4.206 FREE NO
N6633 5.799 FREE NO
N6635 4.603 FREE NO
N6637 1.398 FREE NO
N6639 2.249 FREE NO
N6641 4.697 FREE NO
N6642 5.359 FREE NO
N6645 3.657 FREE NO
N6647 3.657 FREE NO
N6651 5.895 FREE NO
N6653 5.135 FREE NO
N6658 3.641 FREE NO
N6660 3.999 FREE NO
N6662 5.647 FREE NO
N6664 3.961 FREE NO
N6666 3.775 FREE NO
N6668 4.033 FREE NO
N6670 3.957 FREE NO
N6674 4.327 FREE NO
N6675 7.401 FREE NO
N6677 3.874 FREE NO
N6678 4.398 FREE NO
N6680 5.701 FREE NO
N6683 4.026 FREE NO
N6686 5.665 FREE NO
N6689 4.027 FREE NO
N6694 6.978 FREE NO
N6696 7.208 FREE NO
N6698 1.736 FREE NO
N6706 1.807 FREE NO
N6708 4.051 FREE NO
N6710 4.419 FREE NO
N6714 3.987 FREE NO
N6716 3.424 FREE NO
N6718 3.570 FREE NO
N6720 3.057 FREE NO
N6722 3.897 FREE NO
N6724 3.720 FREE NO
N6728 3.782 FREE NO
N6730 2.379 FREE NO
N6732 2.660 FREE NO
N6733 4.494 FREE NO
N6735 1.872 FREE NO
N6737 3.772 FREE NO
N6739 3.112 FREE NO
N6741 4.344 FREE NO
N6743 4.591 FREE NO
N6745 4.917 FREE NO
N6747 4.557 FREE NO
N6749 3.857 FREE NO
N6751 3.328 FREE NO
N6753 4.406 FREE NO
N6755 3.387 FREE NO
N6757 4.173 FREE NO
N6759 3.818 FREE NO
N6761 3.480 FREE NO
N6763 2.789 FREE NO
N6768 1.742 FREE NO
N6770 1.207 FREE NO
N6772 3.573 FREE NO
N6773 2.568 FREE NO
N6776 3.309 FREE NO
N6778 2.000 FREE NO
N6781 3.950 FREE NO
N6785 1.820 FREE NO
N6786 2.662 FREE NO
N6789 2.070 FREE NO
N6796 1.329 FREE NO
N6798 1.452 FREE NO
N6801 1.870 FREE NO
N6803 1.368 FREE NO
N6805 2.434 FREE NO
N6807 1.042 FREE NO
N6808 1.131 FREE NO
N6810 1.977 FREE NO
N6812 2.389 FREE NO
N6814 1.614 FREE NO
N6816 2.066 FREE NO
N6820 2.542 FREE NO
N6822 2.389 FREE NO
N6824 1.679 FREE NO
N6825 1.796 FREE NO
N6828 1.784 FREE NO
N6830 1.960 FREE NO
N6833 1.300 FREE NO
N6835 2.444 FREE NO
N6837 1.431 FREE NO
N6839 1.397 FREE NO
N6840 2.714 FREE NO
N6844 1.498 FREE NO
N6846 3.665 FREE NO
N6848 2.936 FREE NO
N6850 3.201 FREE NO
N6852 1.679 FREE NO
N6857 1.272 FREE NO
N6859 2.956 FREE NO
N6861 2.786 FREE NO
N6865 3.217 FREE NO
N6867 3.548 FREE NO
N6869 3.520 FREE NO
N6870 3.570 FREE NO
N6873 3.613 FREE NO
N6877 2.701 FREE NO
N6881 3.463 FREE NO
N6883 5.007 FREE NO
N6885 5.385 FREE NO
N6887 3.881 FREE NO
N6890 3.647 FREE NO
N6892 3.268 FREE NO
N6894 3.203 FREE NO
N6898 2.292 FREE NO
N6900 3.124 FREE NO
N6901 3.136 FREE NO
N6903 3.521 FREE NO
N6905 3.543 FREE NO
N6907 3.217 FREE NO
N6909 3.441 FREE NO
N6911 3.527 FREE NO
N6913 3.156 FREE NO
N6915 3.082 FREE NO
N6917 3.654 FREE NO
N6921 3.225 FREE NO
N6925 3.444 FREE NO
N6927 3.289 FREE NO
N6929 4.065 FREE NO
N6933 2.136 FREE NO
N6934 2.085 FREE NO
N6938 2.572 FREE NO
N6940 2.572 FREE NO
N6944 2.354 FREE NO
N6947 2.770 FREE NO
N6949 2.600 FREE NO
N6951 2.493 FREE NO
N6953 2.875 FREE NO
N6955 5.039 FREE NO
N6957 3.355 FREE NO
N6959 2.820 FREE NO
N6963 2.847 FREE NO
N6965 2.289 FREE NO
N6966 2.460 FREE NO
N6967 5.983 FREE NO
N6972 5.961 FREE NO
N6975 2.195 FREE NO
N6977 3.355 FREE NO
N6979 2.860 FREE NO
N6981 3.023 FREE NO
N6983 2.044 FREE NO
N6985 4.523 FREE NO
N6987 2.834 FREE NO
N6991 4.860 FREE NO
N6993 3.924 FREE NO
N6995 3.795 FREE NO
N6997 4.761 FREE NO
N6999 3.907 FREE NO
N7001 3.528 FREE NO
N7003 3.739 FREE NO
N7005 5.158 FREE NO
N7008 5.872 FREE NO
N7013 7.269 FREE NO
N7015 7.546 FREE NO
N7020 6.251 FREE NO
N7025 5.092 FREE NO
N7027 5.797 FREE NO
N7029 4.913 FREE NO
N7030 5.112 FREE NO
N7033 7.256 FREE NO
N7035 7.702 FREE NO
N7037 8.117 FREE NO
N7039 8.509 FREE NO
N7041 8.390 FREE NO
N7043 8.509 FREE NO
N7045 8.193 FREE NO
N7047 8.600 FREE NO
N7049 9.176 FREE NO
N7050 8.813 FREE NO
N7053 8.795 FREE NO
N7055 8.847 FREE NO
N7057 8.203 FREE NO
N7059 6.987 FREE NO
N7061 7.957 FREE NO
N7063 7.826 FREE NO
N7065 6.324 FREE NO
N7067 5.257 FREE NO
N7070 6.607 FREE NO
N7072 6.357 FREE NO
N7076 6.144 FREE NO
N7077 5.743 FREE NO
N7078 5.518 FREE NO
N7080 5.353 FREE NO
N7082 5.349 FREE NO
N7088 4.029 FREE NO
N7089 2.903 FREE NO
N7091 2.903 FREE NO
N7093 3.811 FREE NO
N7095 5.444 FREE NO
N7097 4.541 FREE NO
N7099 2.840 FREE NO
N7101 2.432 FREE NO
N7103 2.570 FREE NO
N7108 1.743 FREE NO
N7110 1.664 FREE NO
N7113 2.117 FREE NO
N7115 1.598 FREE NO
N7117 1.745 FREE NO
N7119 2.140 FREE NO
N7121 2.031 FREE NO
N7123 2.150 FREE NO
N7126 1.629 FREE NO
N7128 1.235 FREE NO
N7130 3.126 FREE NO
N7132 3.409 FREE NO
N7135 0.848 FREE NO
N7138 1.555 FREE NO
N7141 3.920 FREE NO

[CONDUITS]
C0 N0 N1 351.2 0.015 0.978 0.000 0 0
C1 N2 N3 121.4 0.015 0.000 0.000 0 0
C2 N4 N5 875.6 0.015 0.000 0.000 0 0
C3 N6 N7 1329.5 0.015 0.000 0.000 0 0
C4 N7 N8 722.4 0.015 5.191 0.000 0 0
C5 N9 N10 710.7 0.015 0.000 0.000 0 0
C6 N11 N12 304.0 0.015 0.000 0.000 0 0
C7 N13 N14 130.1 0.015 0.000 0.000 0 0
C8 N15 N16 3035.0 0.015 0.000 0.000 0 0
C9 N17 N18 169.1 0.015 0.000 0.000 0 0
C10 N19 N20 1712.7 0.015 0.000 0.000 0 0
C11 N21 N22 247.6 0.015 0.000 0.000 0 0
C12 N22 N23 136.4 0.015 0.994 0.000 0 0
C13 N24 N25 857.2 0.015 0.000 0.000 0 0
C14 N26 N27 40.9 0.015 0.000 0.000 0 0
C15 N28 N29 189.0 0.015 0.000 0.000 0 0
C16 N30 N31 150.8 0.015 0.000 0.000 0 0
C17 N32 N33 138.9 0.015 0.000 0.000 0 0
C18 N34 N35 184.1 0.015 0.000 0.000 0 0
C19 N36 N37 148.3 0.015 0.000 0.000 0 0
C20 N38 N39 120.2 0.015 0.000 0.000 0 0
C21 N40 N41 1468.9 0.015 0.000 0.000 0 0
C22 N42 N43 50.5 0.015 0.000 0.000 0 0
C23 N44 N45 117.3 0.015 0.000 0.000 0 0
C24 N46 N47 184.3 0.015 0.000 0.000 0 0
C25 N48 N49 281.4 0.015 0.000 0.000 0 0
C26 N50 N51 154.0 0.015 0.000 0.000 0 0
C27 N52 N53 252.3 0.015 0.000 0.000 0 0
C28 N54 N55 204.8 0.015 0.000 0.000 0 0
C29 N56 N57 112.3 0.015 0.000 0.000 0 0
C30 N58 N59 93.8 0.015 0.000 0.000 0 0
C31 N60 N61 70.6 0.015 0.000 0.000 0 0
C32 N62 N63 190.2 0.015 0.000 0.000 0 0
C33 N64 N65 59.7 0.015 0.000 0.000 0 0
C34 N66 N67 237.8 0.015 0.000 0.000 0 0
C35 N68 N69 799.2 0.015 0.000 0.000 0 0
C36 N70 N71 247.6 0.015 0.000 0.000 0 0
C37 N72 N73 215.3 0.015 0.000 0.000 0 0
C38 N74 N75 403.4 0.015 0.000 0.000 0 0
C39 N76 N77 175.1 0.015 0.000 0.000 0 0
C40 N78 N79 14.6 0.015 0.000 0.000 0 0
C41 N80 N81 157.2 0.015 0.000 0.000 0 0
C42 N82 N83 221.6 0.015 0.000 0.000 0 0
C43 N84 N85 282.1 0.015 0.000 0.000 0 0
C44 N86 N87 130.6 0.015 0.000 0.000 0 0
C45 N88 N89 41.4 0.015 0.000 0.000 0 0
C46 N90 N91 244.1 0.015 0.000 0.000 0 0
C47 N92 N93 341.4 0.015 0.000 0.000 0 0
C48 N94 N95 534.3 0.015 0.000 0.000 0 0
C49 N96 N97 174.9 0.015 0.000 0.000 0 0
C50 N98 N99 20.8 0.015 0.000 0.000 0 0
C51 N100 N101 17.1 0.015 0.000 0.000 0 0
C52 N102 N103 128.0 0.015 0.000 0.000 0 0
C53 N104 N105 63.4 0.015 0.000 0.000 0 0
C54 N106 N107 119.9 0.015 0.000 0.000 0 0
C55 N108 N109 17.7 0.015 0.000 0.000 0 0
C56 N110 N111 146.9 0.015 0.000 0.000 0 0
C57 N112 N113 157.4 0.015 0.000 0.529 0 0
C58 N114 N115 41.4 0.015 0.000 0.000 0 0
C59 N116 N113 572.6 0.015 0.695 0.000 0 0
C60 N117 N118 195.6 0.015 0.000 0.000 0 0
C61 N119 N120 180.2 0.015 0.000 0.000 0 0
C62 N121 N122 225.0 0.015 0.000 0.000 0 0
C63 N123 N124 157.5 0.015 0.000 0.000 0 0
C64 N125 N126 49.8 0.015 0.000 0.000 0 0
C65 N127 N128 170.8 0.015 0.000 0.000 0 0
C66 N129 N130 49.2 0.015 0.000 0.000 0 0
C67 N131 N132 208.3 0.015 0.000 0.000 0 0
C68 N133 N134 173.9 0.015 0.000 0.000 0 0
C69 N135 N136 170.8 0.015 0.000 0.000 0 0
C70 N137 N138 176.3 0.015 0.000 0.000 0 0
C71 N139 N140 173.9 0.015 0.000 0.000 0 0
C72 N141 N142 176.3 0.015 0.000 0.000 0 0
C73 N143 N144 118.5 0.015 0.000 0.000 0 0
C74 N145 N146 101.1 0.015 0.000 0.000 0 0
C75 N147 N148 96.9 0.015 0.000 0.000 0 0
C76 N149 N150 330.7 0.015 0.000 0.000 0 0
C77 N151 N152 67.7 0.015 0.000 0.000 0 0
C78 N153 N154 70.0 0.015 0.000 0.000 0 0
C79 N155 N156 347.7 0.015 0.000 0.000 0 0
C80 N157 N158 89.2 0.015 0.000 0.000 0 0
C81 N159 N160 119.8 0.015 0.000 0.000 0 0
C82 N161 N162 143.1 0.015 0.000 0.000 0 0
C83 N163 N164 70.8 0.015 0.148 0.000 0 0
C84 N165 N166 104.4 0.015 0.000 0.000 0 0
C85 N167 N168 192.7 0.015 0.000 0.000 0 0
C86 N169 N170 108.0 0.015 0.000 0.000 0 0
C87 N171 N172 116.3 0.015 0.000 0.000 0 0
C88 N173 N174 192.2 0.015 0.000 0.000 0 0
C89 N175 N176 133.6 0.015 0.000 0.000 0 0
C90 N177 N178 69.0 0.015 0.000 0.000 0 0
C91 N179 N180 106.4 0.015 0.000 5.070 0 0
C92 N180 N181 235.5 0.015 0.000 0.000 0 0
C93 N182 N179 294.6 0.015 0.000 0.000 0 0
C94 N183 N184 444.7 0.015 0.000 0.000 0 0
C95 N184 N185 213.0 0.015 0.520 0.000 0 0
C96 N116 N186 355.4 0.015 0.000 0.000 0 0
C97 N187 N188 167.3 0.015 0.000 0.000 0 0
C98 N189 N190 47.6 0.015 2.951 0.000 0 0
C99 N191 N192 193.4 0.015 0.000 0.000 0 0
C100 N193 N194 786.7 0.015 0.000 0.000 0 0
C101 N195 N116 261.0 0.015 0.000 0.122 0 0
C102 N116 N196 259.2 0.015 0.584 0.000 0 0
C103 N197 N198 108.1 0.015 2.229 0.000 0 0
C104 N163 N197 46.3 0.015 0.000 0.339 0 0
C105 N199 N200 83.2 0.015 0.000 0.000 0 0
C106 N200 N201 255.6 0.015 2.615 0.000 0 0
C107 N202 N203 125.2 0.015 0.000 0.000 0 0
C108 N204 N189 613.4 0.015 0.000 0.000 0 0
C109 N205 N206 228.2 0.015 0.000 0.000 0 0
C110 N206 N207 178.1 0.015 0.121 0.000 0 0
C111 N113 N208 87.4 0.015 1.050 0.000 0 0
C112 N209 N210 132.0 0.015 0.000 0.000 0 0
C113 N211 N212 1610.9 0.015 0.000 0.000 0 0
C114 N213 N214 168.8 0.015 0.000 0.000 0 0
C115 N214 N215 68.5 0.015 0.000 0.000 0 0
C116 N216 N217 361.4 0.015 0.000 0.000 0 0
C117 N217 N218 380.4 0.015 0.373 0.000 0 0
C118 N219 N197 460.6 0.015 0.000 0.000 0 0
C119 N220 N221 60.0 0.015 0.000 0.000 0 0
C120 N222 N223 380.0 0.015 0.000 0.000 0 0
C121 N224 N225 300.0 0.015 0.000 0.000 0 0
C122 N226 N227 380.0 0.015 0.000 0.000 0 0
C123 N228 N229 100.0 0.015 0.000 0.000 0 0
C124 N224 N230 750.0 0.015 0.000 0.000 0 0
C125 N231 N232 60.0 0.015 0.000 0.000 0 0
C126 N233 N234 330.0 0.015 0.000 0.000 0 0
C127 N235 N236 470.0 0.015 0.000 0.000 0 0
C128 N237 N238 200.0 0.015 0.000 0.000 0 0
C129 N239 N240 150.0 0.015 0.000 0.000 0 0
C130 N241 N242 180.0 0.015 0.000 0.000 0 0
C131 N243 N244 150.0 0.03 0.000 0.000 0 0
C132 N245 N246 240.0 0.015 0.000 0.000 0 0
C133 N247 N248 300.0 0.015 0.000 0.000 0 0
C134 N248 N249 400.0 0.015 0.000 0.000 0 0
C135 N250 N251 400.0 0.015 0.000 0.000 0 0
C136 N252 N253 300.0 0.015 0.000 0.000 0 0
C137 N254 N255 100.0 0.015 0.000 0.000 0 0
C138 N256 N257 250.0 0.015 0.000 0.000 0 0
C139 N258 N259 365.0 0.015 0.000 0.000 0 0
C140 N260 N261 350.0 0.015 0.000 0.000 0 0
C141 N262 N263 150.0 0.015 0.000 0.000 0 0
C142 N264 N265 150.0 0.015 0.000 0.000 0 0
C143 N266 N267 150.0 0.015 0.000 0.000 0 0
C144 N256 N268 120.0 0.015 0.210 0.000 0 0
C145 N269 N270 100.0 0.015 0.000 0.000 0 0
C146 N271 N272 140.0 0.015 0.000 0.000 0 0
C147 N273 N274 400.0 0.015 0.000 0.000 0 0
C148 N275 N276 800.0 0.015 0.000 0.000 0 0
C149 N277 N278 1480.0 0.015 0.000 0.000 0 0
C150 N279 N280 470.0 0.015 0.000 0.000 0 0
C151 N281 N282 180.0 0.015 0.000 0.000 0 0
C152 N283 N284 180.0 0.015 0.000 0.000 0 0
C153 N284 N285 500.0 0.015 0.000 0.000 0 0
C154 N286 N287 475.0 0.015 0.000 0.000 0 0
C155 N288 N289 275.0 0.015 1.826 0.698 0 0
C156 N289 N290 150.0 0.015 0.000 0.000 0 0
C157 N291 N292 60.0 0.015 0.000 0.000 0 0
C158 N293 N294 150.0 0.03 0.000 0.000 0 0
C159 N295 N296 1000.0 0.015 0.000 0.255 0 0
C160 N297 N298 800.0 0.015 0.000 0.000 0 0
C161 N298 N299 50.0 0.015 0.000 0.000 0 0
C162 N300 N301 150.0 0.03 0.000 0.000 0 0
C163 N302 N303 1000.0 0.015 0.000 0.000 0 0
C164 N304 N305 180.0 0.015 0.000 0.000 0 0
C165 N306 N307 170.0 0.015 0.000 0.000 0 0
C166 N308 N309 170.0 0.015 0.000 0.896 0 0
C167 N310 N309 170.0 0.015 0.000 0.000 0 0
C168 N311 N312 170.0 0.015 0.000 0.000 0 0
C169 N313 N314 170.0 0.015 0.000 0.000 0 0
C170 N314 N312 150.0 0.015 0.072 0.740 0 0
C171 N315 N316 100.0 0.015 0.000 0.000 0 0
C172 N317 N318 150.0 0.015 0.000 0.000 0 0
C173 N318 N319 45.0 0.015 1.271 0.000 0 0
C174 N320 N321 400.0 0.015 0.000 0.000 0 0
C175 N322 N323 400.0 0.015 0.000 0.000 0 0
C176 N324 N325 300.0 0.015 0.000 0.000 0 0
C177 N326 N327 350.0 0.015 0.000 0.000 0 0
C178 N328 N329 400.0 0.015 0.000 0.000 0 0
C179 N330 N331 470.0 0.015 0.000 0.000 0 0
C180 N332 N333 365.0 0.015 0.000 0.000 0 0
C181 N334 N335 250.0 0.015 0.000 0.000 0 0
C182 N336 N337 470.0 0.015 0.000 0.000 0 0
C183 N338 N339 350.0 0.03 1.550 0.000 0 0
C184 N287 N288 225.0 0.015 0.470 0.000 0 0
C185 N340 N341 1200.0 0.015 0.000 0.000 0 0
C186 N342 N247 140.0 0.015 0.000 0.000 0 0
C187 N343 N344 150.0 0.015 0.000 0.000 0 0
C188 N345 N346 470.0 0.015 0.000 0.000 0 0
C189 N347 N348 475.0 0.015 0.000 0.000 0 0
C190 N349 N350 350.0 0.015 0.000 0.000 0 0
C191 N351 N352 170.0 0.015 0.000 0.000 0 0
C192 N353 N354 170.0 0.015 0.000 0.000 0 0
C193 N355 N356 980.0 0.015 0.000 0.000 0 0
C194 N357 N358 1480.0 0.015 0.000 0.000 0 0
C195 N359 N338 150.0 0.015 0.000 0.000 0 0
C196 N360 N361 400.0 0.015 0.000 0.000 0 0
C197 N361 N315 400.0 0.015 0.000 0.000 0 0
C198 N362 N363 400.0 0.015 0.000 0.000 0 0
C199 N296 N364 1000.0 0.015 0.000 0.000 0 0
C200 N365 N366 60.0 0.015 0.000 0.000 0 0
C201 N367 N368 540.0 0.015 0.000 0.000 0 0
C202 N369 N370 470.0 0.015 0.000 0.000 0 0
C203 N371 N372 136.2 0.015 0.000 0.000 0 0
C204 N373 N374 130.8 0.015 0.000 0.000 0 0
C205 N375 N376 161.4 0.015 0.000 0.000 0 0
C206 N377 N378 355.6 0.015 0.000 0.000 0 0
C207 N379 N380 104.3 0.015 0.000 0.000 0 0
C208 N381 N382 90.1 0.015 0.000 0.000 0 0
C209 N383 N384 88.6 0.015 0.000 0.000 0 0
C210 N385 N386 174.6 0.015 0.000 0.000 0 0
C211 N387 N381 66.6 0.015 0.000 0.000 0 0
C212 N388 N389 288.2 0.015 0.000 0.000 0 0
C213 N390 N391 287.6 0.015 0.000 0.000 0 0
C214 N392 N393 131.2 0.015 0.000 0.000 0 0
C215 N394 N395 737.2 0.015 0.000 0.000 0 0
C216 N396 N397 105.3 0.015 0.000 0.000 0 0
C217 N398 N399 446.7 0.015 0.000 0.000 0 0
C218 N400 N401 43.4 0.015 0.000 0.000 0 0
C219 N402 N403 66.5 0.015 0.000 0.000 0 0
C220 N404 N405 155.4 0.015 0.000 0.000 0 0
C221 N406 N407 606.0 0.015 0.000 0.000 0 0
C222 N408 N409 707.7 0.015 0.000 0.000 0 0
C223 N410 N411 139.2 0.015 0.000 0.000 0 0
C224 N412 N413 23.5 0.015 0.000 0.000 0 0
C225 N414 N415 489.5 0.015 0.000 0.000 0 0
C226 N416 N417 187.8 0.015 0.000 0.000 0 0
C227 N417 N395 257.8 0.015 0.276 0.000 0 0
C228 N418 N419 144.6 0.015 0.000 0.000 0 0
C229 N420 N421 21.5 0.015 0.000 0.000 0 0
C230 N422 N423 150.2 0.015 0.000 0.000 0 0
C231 N424 N425 432.7 0.015 0.000 0.000 0 0
C232 N426 N427 73.1 0.015 0.000 0.000 0 0
C233 N428 N429 190.8 0.015 0.000 0.000 0 0
C234 N430 N431 98.5 0.015 0.000 0.000 0 0
C235 N432 N433 99.8 0.015 0.000 0.000 0 0
C236 N434 N435 279.5 0.015 0.000 0.000 0 0
C237 N436 N437 418.9 0.015 0.000 0.624 0 0
C238 N438 N439 282.5 0.015 0.390 0.000 0 0
C239 N436 N440 271.0 0.015 0.000 0.000 0 0
C240 N440 N441 400.2 0.015 0.000 0.000 0 0
C241 N442 N443 127.7 0.015 0.000 0.000 0 0
C242 N443 N444 102.1 0.015 0.042 0.000 0 0
C243 N445 N446 251.7 0.015 0.000 0.000 0 0
C244 N447 N448 176.3 0.015 0.000 0.000 0 0
C245 N449 N450 395.6 0.015 0.000 0.000 0 0
C246 N451 N452 76.0 0.015 0.000 0.000 0 0
C247 N441 N453 173.9 0.015 0.787 0.000 0 0
C248 N454 N455 367.1 0.015 0.000 0.000 0 0
C249 N456 N457 574.6 0.015 0.000 0.000 0 0
C250 N458 N459 226.1 0.015 0.000 0.000 0 0
C251 N460 N461 812.5 0.015 0.000 0.000 0 0
C252 N462 N463 286.0 0.015 0.000 0.000 0 0
C253 N464 N465 172.9 0.015 0.000 0.000 0 0
C254 N466 N467 118.1 0.015 0.000 0.000 0 0
C255 N468 N469 269.6 0.015 0.000 0.000 0 0
C256 N470 N471 366.8 0.015 0.000 0.000 0 0
C257 N472 N473 475.7 0.015 0.000 0.000 0 0
C258 N474 N475 411.0 0.015 0.000 0.000 0 0
C259 N476 N477 210.5 0.015 0.000 0.000 0 0
C260 N478 N479 102.5 0.015 0.000 0.000 0 0
C261 N480 N481 289.6 0.015 0.000 0.000 0 0
C262 N482 N483 469.5 0.015 0.000 0.000 0 0
C263 N484 N485 337.8 0.015 0.000 0.000 0 0
C264 N486 N487 273.4 0.015 0.000 0.000 0 0
C265 N488 N489 270.3 0.015 0.000 0.000 0 0
C266 N393 N490 114.7 0.015 2.487 0.000 0 0
C267 N434 N438 80.4 0.015 0.000 0.000 0 0
C268 N450 N437 75.4 0.015 0.624 0.000 0 0
C269 N469 N491 53.9 0.015 0.798 0.000 0 0
C270 N492 N493 713.9 0.015 0.000 0.000 0 0
C271 N494 N495 160.2 0.015 0.000 0.000 0 0
C272 N495 N496 101.4 0.015 0.938 0.000 0 0
C273 N497 N498 330.4 0.015 0.000 0.276 0 0
C274 N498 N499 42.4 0.015 0.000 0.000 0 0
C275 N500 N501 164.6 0.015 0.221 0.000 0 0
C276 N501 N502 153.1 0.015 0.221 0.000 0 0
C277 N503 N504 143.4 0.015 0.000 0.000 0 0
C278 N505 N506 268.2 0.015 0.130 0.000 0 0
C279 N507 N508 206.1 0.015 0.000 0.000 0 0
C280 N509 N510 156.4 0.015 0.000 0.000 0 0
C281 N511 N512 191.8 0.015 0.000 0.000 0 0
C282 N513 N514 325.0 0.015 0.000 0.000 0 0
C283 N515 N516 384.0 0.015 0.000 0.000 0 0
C284 N516 N517 411.0 0.015 0.922 0.000 0 0
C285 N518 N519 218.7 0.015 0.618 0.000 0 0
C286 N520 N521 228.2 0.015 0.000 0.000 0 0
C287 N522 N523 137.8 0.015 0.000 0.000 0 0
C288 N523 N524 291.6 0.015 0.872 0.000 0 0
C289 N525 N526 145.8 0.015 0.000 0.000 0 0
C290 N527 N528 120.5 0.015 0.000 0.000 0 0
C291 N529 N530 198.9 0.015 0.000 0.000 0 0
C292 N505 N531 240.6 0.015 0.130 0.000 0 0
C293 N531 N532 325.6 0.015 1.440 0.000 0 0
C294 N533 N534 171.9 0.015 0.000 0.000 0 0
C295 N534 N535 83.2 0.015 0.000 0.000 0 0
C296 N536 N537 106.7 0.015 0.000 0.000 0 0
C297 N538 N533 153.1 0.015 0.000 0.000 0 0
C298 N539 N540 569.6 0.015 0.000 0.000 0 0
C299 N541 N542 195.3 0.015 0.000 0.000 0 0
C300 N543 N544 386.9 0.015 0.000 0.000 0 0
C301 N544 N545 400.9 0.015 0.000 0.000 0 0
C302 N546 N547 199.3 0.015 0.000 0.000 0 0
C303 N547 N548 96.3 0.015 0.000 0.000 0 0
C304 N549 N550 238.6 0.015 0.654 0.000 0 0
C305 N551 N552 318.4 0.015 0.000 0.000 0 0
C306 N553 N554 84.9 0.015 0.000 0.000 0 0
C307 N554 N555 127.5 0.015 0.108 0.000 0 0
C308 N556 N378 277.6 0.015 0.000 0.070 0 0
C309 N557 N558 169.6 0.015 0.000 0.000 0 0
C310 N559 N560 143.0 0.015 0.000 0.000 0 0
C311 N504 N500 39.2 0.015 0.061 0.000 0 0
C312 N561 N505 239.6 0.015 0.000 0.000 0 0
C313 N562 N518 138.2 0.015 0.000 0.000 0 0
C314 N563 N546 112.5 0.015 0.000 0.000 0 0
C315 N564 N549 19.2 0.015 0.000 0.000 0 0
C316 N555 N565 96.2 0.015 0.177 0.000 0 0
C317 N566 N567 286.1 0.015 0.000 0.351 0 0
C318 N568 N569 173.9 0.015 0.000 0.000 0 0
C319 N570 N571 272.4 0.015 1.013 0.000 0 0
C320 N572 N573 37.4 0.015 0.000 0.000 0 0
C321 N574 N575 81.8 0.015 0.000 0.000 0 0
C322 N571 N570 272.4 0.015 1.116 0.000 0 0
C323 N576 N577 609.7 0.015 0.000 0.000 0 0
C324 N568 N578 8.8 0.015 0.626 0.000 0 0
C325 N567 N579 9.7 0.015 0.000 0.000 0 0
C326 N580 N581 167.0 0.015 0.000 0.000 0 0
C327 N582 N583 202.9 0.015 0.000 0.000 0 0
C328 N584 N585 303.3 0.015 0.000 0.000 0 0
C329 N586 N587 824.1 0.015 0.000 0.000 0 0
C330 N588 N589 798.5 0.015 0.000 0.000 0 0
C331 N590 N591 285.2 0.015 0.000 0.000 0 0
C332 N592 N593 195.0 0.015 0.000 0.000 0 0
C333 N594 N595 161.0 0.015 0.000 0.000 0 0
C334 N596 N597 340.4 0.015 0.785 0.000 0 0
C335 N598 N599 137.8 0.015 0.000 0.000 0 0
C336 N600 N601 380.5 0.015 0.000 0.000 0 0
C337 N602 N603 225.5 0.015 0.572 0.000 0 0
C338 N604 N602 561.0 0.015 0.000 0.000 0 0
C339 N605 N606 134.6 0.015 0.000 0.000 0 0
C340 N607 N596 124.2 0.015 0.000 0.000 0 0
C341 N603 N608 129.5 0.015 0.906 0.000 0 0
C342 N609 N610 67.8 0.015 0.000 0.000 0 0
C343 N611 N612 191.1 0.015 0.000 0.000 0 0
C344 N613 N614 236.9 0.015 0.000 0.000 0 0
C345 N615 N616 225.5 0.015 0.000 0.000 0 0
C346 N617 N618 144.0 0.015 0.000 0.000 0 0
C347 N619 N620 226.4 0.015 0.000 0.000 0 0
C348 N621 N622 374.1 0.015 0.000 0.000 0 0
C349 N623 N624 28.0 0.015 0.000 0.000 0 0
C350 N625 N626 479.9 0.015 0.000 1.287 0 0
C351 N627 N628 361.1 0.015 1.435 0.000 0 0
C352 N629 N630 374.7 0.015 0.000 0.000 0 0
C353 N631 N632 182.1 0.015 0.000 0.000 0 0
C354 N633 N634 278.2 0.015 0.000 0.359 0 0
C355 N635 N636 175.4 0.015 0.000 0.000 0 0
C356 N637 N638 143.8 0.015 0.000 0.000 0 0
C357 N639 N640 73.0 0.015 0.000 0.000 0 0
C358 N641 N642 139.4 0.015 0.000 0.000 0 0
C359 N643 N644 338.7 0.015 0.000 0.000 0 0
C360 N645 N646 251.4 0.015 0.000 0.000 0 0
C361 N647 N648 397.7 0.015 0.000 0.000 0 0
C362 N648 N649 1002.8 0.015 1.163 0.000 0 0
C363 N650 N651 499.8 0.015 0.000 0.000 0 0
C364 N652 N653 375.3 0.015 0.000 0.000 0 0
C365 N654 N655 126.5 0.015 0.000 0.000 0 0
C366 N655 N656 107.5 0.015 0.000 0.000 0 0
C367 N657 N658 132.4 0.015 0.000 0.000 0 0
C368 N659 N660 88.2 0.015 0.000 0.000 0 0
C369 N661 N662 121.3 0.015 0.000 0.000 0 0
C370 N663 N664 348.2 0.015 0.000 0.000 0 0
C371 N665 N666 284.4 0.015 0.000 0.000 0 0
C372 N667 N668 39.8 0.015 0.000 0.000 0 0
C373 N664 N669 197.2 0.015 1.044 0.000 0 0
C374 N670 N671 213.4 0.015 0.074 0.000 0 0
C375 N672 N673 339.7 0.015 0.000 0.000 0 0
C376 N673 N674 139.4 0.015 0.000 0.000 0 0
C377 N675 N676 388.9 0.015 0.000 0.000 0 0
C378 N676 N677 93.8 0.015 0.167 0.000 0 0
C379 N678 N679 77.7 0.015 0.471 0.000 0 0
C380 N680 N681 251.2 0.015 1.147 0.000 0 0
C381 N682 N680 128.1 0.015 0.000 0.000 0 0
C382 N683 N626 284.9 0.015 0.043 0.000 0 0
C383 N684 N685 187.3 0.015 0.000 0.000 0 0
C384 N686 N687 532.6 0.015 0.000 0.000 0 0
C385 N688 N689 165.3 0.015 0.000 0.000 0 0
C386 N690 N691 254.2 0.015 0.000 0.071 0 0
C387 N692 N691 207.9 0.015 0.000 0.000 0 0
C388 N693 N694 262.6 0.015 0.000 0.000 0 0
C389 N695 N683 399.5 0.015 0.000 0.000 0 0
C390 N696 N627 48.2 0.015 0.000 0.000 0 0
C391 N697 N698 161.2 0.015 0.000 0.000 0 0
C392 N693 N699 385.6 0.015 0.341 0.000 0 0
C393 N700 N647 643.8 0.015 1.290 0.000 0 0
C394 N701 N702 69.4 0.015 0.000 0.000 0 0
C395 N703 N704 183.4 0.015 0.000 0.000 0 0
C396 N705 N706 174.7 0.015 0.000 0.000 0 0
C397 N707 N708 39.5 0.015 0.000 0.000 0 0
C398 N705 N709 281.6 0.015 0.000 0.000 0 0
C399 N710 N711 25.4 0.015 0.144 0.000 0 0
C400 N712 N713 333.7 0.015 0.000 0.000 0 0
C401 N714 N715 1145.9 0.015 0.000 0.000 0 0
C402 N716 N717 113.5 0.015 0.000 0.000 0 0
C403 N718 N719 355.9 0.015 0.000 0.000 0 0
C404 N677 N678 257.6 0.015 0.244 0.000 0 0
C405 N634 N720 165.5 0.015 0.652 0.000 0 0
C406 N721 N722 32.2 0.015 0.000 0.000 0 0
C407 N723 N661 111.2 0.015 0.000 0.000 0 0
C408 N724 N670 55.4 0.015 0.579 0.000 0 0
C409 N674 N724 62.5 0.015 0.579 0.000 0 0
C410 N699 N634 236.1 0.015 1.232 0.000 0 0
C411 N725 N700 258.1 0.015 0.000 0.000 0 0
C412 N709 N726 33.5 0.015 0.000 0.000 0 0
C413 N727 N710 17.5 0.015 0.000 0.000 0 0
C414 N728 N729 227.8 0.015 0.000 0.000 0 0
C415 N730 N731 15.7 0.015 0.000 0.000 0 0
C416 N731 N732 394.4 0.015 0.073 0.000 0 0
C417 N733 N734 393.3 0.015 0.214 0.000 0 0
C418 N734 N735 348.3 0.015 0.214 0.000 0 0
C419 N736 N737 241.7 0.015 0.000 0.000 0 0
C420 N738 N739 227.4 0.015 0.000 0.000 0 0
C421 N740 N741 131.5 0.015 0.000 0.000 0 0
C422 N742 N743 111.9 0.015 1.121 0.058 0 0
C423 N744 N745 206.2 0.015 0.000 0.000 0 0
C424 N746 N747 59.4 0.015 0.000 0.000 0 0
C425 N746 N748 138.4 0.015 0.287 0.836 0 0
C426 N749 N748 264.0 0.015 0.000 0.000 0 0
C427 N750 N751 54.8 0.015 0.000 0.000 0 0
C428 N752 N753 360.8 0.015 0.000 0.000 0 0
C429 N754 N755 120.3 0.015 0.000 0.000 0 0
C430 N756 N757 287.0 0.015 0.000 0.000 0 0
C431 N758 N759 318.0 0.015 0.000 0.000 0 0
C432 N760 N761 156.1 0.015 0.000 0.000 0 0
C433 N762 N763 139.3 0.015 0.000 0.000 0 0
C434 N764 N765 15.3 0.015 0.000 0.000 0 0
C435 N766 N767 85.6 0.015 0.000 0.000 0 0
C436 N768 N769 67.6 0.015 0.000 0.000 0 0
C437 N770 N771 63.6 0.015 0.000 0.000 0 0
C438 N772 N773 65.1 0.015 0.000 0.000 0 0
C439 N774 N775 67.5 0.015 0.000 0.000 0 0
C440 N763 N776 50.9 0.015 0.175 0.000 0 0
C441 N777 N733 95.2 0.015 0.000 0.000 0 0
C442 N778 N777 89.2 0.015 0.000 0.000 0 0
C443 N779 N742 27.8 0.015 0.000 0.000 0 0
C444 N743 N780 17.6 0.015 0.000 0.000 0 0
C445 N780 N781 98.2 0.015 0.228 0.000 0 0
C446 N782 N783 198.0 0.015 0.000 0.000 0 0
C447 N784 N785 36.6 0.015 0.000 0.000 0 0
C448 N786 N787 229.5 0.015 1.169 0.000 0 0
C449 N788 N789 283.4 0.015 0.000 0.000 0 0
C450 N787 N790 167.1 0.015 0.484 0.000 0 0
C451 N791 N792 507.0 0.015 0.302 0.000 0 0
C452 N793 N794 203.0 0.015 0.000 0.000 0 0
C453 N795 N796 104.0 0.015 0.000 0.000 0 0
C454 N797 N798 107.1 0.015 0.000 0.000 0 0
C455 N799 N800 82.6 0.015 0.230 0.000 0 0
C456 N800 N801 84.4 0.015 0.894 0.000 0 0
C457 N801 N802 44.4 0.015 0.665 0.000 0 0
C458 N747 N803 269.5 0.015 0.240 0.000 0 0
C459 N804 N805 56.5 0.015 0.000 0.000 0 0
C460 N805 N806 59.8 0.015 0.313 0.000 0 0
C461 N807 N808 191.0 0.015 0.000 0.000 0 0
C462 N806 N809 44.6 0.015 0.313 0.000 0 0
C463 N783 N786 95.8 0.015 2.968 0.000 0 0
C464 N810 N791 105.9 0.015 0.000 0.000 0 0
C465 N798 N799 60.3 0.015 0.230 0.000 0 0
C466 N811 N812 217.4 0.015 0.000 0.000 0 0
C467 N812 N813 181.2 0.015 0.082 0.000 0 0
C468 N814 N815 259.8 0.015 0.808 0.000 0 0
C469 N816 N817 30.6 0.015 0.000 0.000 0 0
C470 N818 N819 35.3 0.015 0.000 0.000 0 0
C471 N820 N821 302.9 0.015 0.000 0.000 0 0
C472 N821 N822 250.3 0.015 0.000 0.000 0 0
C473 N823 N824 284.3 0.015 0.000 0.000 0 0
C474 N825 N826 561.6 0.015 0.000 0.000 0 0
C475 N827 N828 330.2 0.015 0.000 0.000 0 0
C476 N829 N830 262.3 0.015 0.000 0.000 0 0
C477 N831 N832 125.8 0.015 0.000 0.000 0 0
C478 N833 N834 314.1 0.015 0.000 0.000 0 0
C479 N835 N836 309.1 0.015 0.000 0.000 0 0
C480 N837 N838 111.3 0.015 0.154 0.000 0 0
C481 N839 N840 72.1 0.015 0.000 0.000 0 0
C482 N841 N842 258.7 0.015 0.000 0.000 0 0
C483 N843 N844 247.4 0.015 0.000 0.000 0 0
C484 N845 N846 163.3 0.015 0.000 0.000 0 0
C485 N847 N842 163.1 0.015 0.000 0.668 0 0
C486 N848 N814 46.0 0.015 0.000 0.000 0 0
C487 N813 N849 114.7 0.015 0.297 0.000 0 0
C488 N838 N850 21.2 0.015 0.000 0.000 0 0
C489 N835 N837 40.0 0.015 0.154 0.000 0 0
C490 N851 N852 310.7 0.015 0.000 0.000 0 0
C491 N853 N854 118.3 0.015 0.000 0.000 0 0
C492 N855 N856 103.8 0.015 0.000 0.000 0 0
C493 N857 N858 104.2 0.015 0.000 0.000 0 0
C494 N859 N860 657.1 0.015 0.000 0.000 0 0
C495 N861 N862 220.4 0.03 0.000 0.000 0 0
C496 N863 N864 453.7 0.015 0.000 0.000 0 0
C497 N865 N866 418.7 0.015 0.000 0.000 0 0
C498 N867 N868 422.8 0.015 0.000 0.000 0 0
C499 N869 N870 398.7 0.015 0.000 0.000 0 0
C500 N871 N872 147.8 0.015 0.000 0.000 0 0
C501 N873 N874 226.4 0.015 0.000 0.000 0 0
C502 N875 N876 173.2 0.015 0.000 0.000 0 0
C503 N877 N878 646.2 0.015 0.000 0.000 0 0
C504 N879 N880 233.0 0.015 0.000 0.000 0 0
C505 N881 N882 73.0 0.015 0.000 0.000 0 0
C506 N883 N884 849.7 0.015 0.000 0.000 0 0
C507 N885 N886 567.5 0.015 0.000 0.000 0 0
C508 N887 N888 885.6 0.015 0.000 0.000 0 0
C509 N889 N890 145.6 0.015 0.000 0.000 0 0
C510 N891 N892 64.3 0.015 0.000 0.000 0 0
C511 N893 N894 152.7 0.015 0.000 0.000 0 0
C512 N895 N894 91.7 0.015 0.000 0.000 0 0
C513 N896 N897 225.2 0.015 0.000 0.000 0 0
C514 N898 N897 101.9 0.015 0.000 0.228 0 0
C515 N899 N900 240.8 0.015 0.000 0.000 0 0
C516 N901 N902 101.4 0.015 0.000 0.000 0 0
C517 N861 N860 293.7 0.03 0.000 0.034 0 0
C518 N903 N904 451.6 0.015 0.000 0.000 0 0
C519 N905 N906 122.3 0.015 0.000 0.000 0 0
C520 N907 N908 268.6 0.015 0.000 0.000 0 0
C521 N909 N910 377.7 0.015 0.000 0.000 0 0
C522 N911 N912 273.5 0.015 0.000 0.000 0 0
C523 N913 N914 313.8 0.015 0.000 0.000 0 0
C524 N915 N916 947.9 0.015 0.000 0.000 0 0
C525 N917 N918 12.7 0.015 0.107 0.000 0 0
C526 N919 N920 11.2 0.015 0.000 0.000 0 0
C527 N921 N922 12.5 0.015 0.250 0.000 0 0
C528 N923 N924 11.8 0.015 0.878 0.000 0 0
C529 N925 N926 9.3 0.015 0.000 0.000 0 0
C530 N927 N928 10.0 0.015 0.180 0.000 0 0
C531 N929 N930 11.0 0.015 0.073 0.000 0 0
C532 N931 N932 9.5 0.015 0.000 0.000 0 0
C533 N933 N934 5.1 0.015 0.261 0.000 0 0
C534 N935 N936 11.9 0.015 0.000 0.000 0 0
C535 N937 N938 97.4 0.015 0.000 0.000 0 0
C536 N939 N940 318.6 0.015 0.000 0.000 0 0
C537 N941 N942 295.1 0.015 0.000 0.000 0 0
C538 N943 N944 291.8 0.015 0.000 0.000 0 0
C539 N945 N940 298.1 0.015 0.000 0.000 0 0
C540 N946 N947 231.2 0.015 0.000 0.000 0 0
C541 N948 N949 302.1 0.015 0.000 0.000 0 0
C542 N950 N951 1664.8 0.03 0.000 0.000 0 0
C543 N952 N953 1665.3 0.03 0.000 0.000 0 0
C544 N954 N955 315.5 0.015 0.000 0.000 0 0
C545 N955 N956 199.6 0.015 0.089 0.000 0 0
C546 N957 N958 792.2 0.015 0.000 0.000 0 0
C547 N959 N960 690.9 0.015 0.000 0.000 0 0
C548 N960 N961 111.0 0.015 0.959 0.000 0 0
C549 N862 N962 415.3 0.03 0.144 0.000 0 0
C550 N963 N964 1153.4 0.015 0.000 0.000 0 0
C551 N859 N965 1136.1 0.015 0.098 0.000 0 0
C552 N966 N967 241.1 0.015 0.000 0.000 0 0
C553 N968 N969 327.5 0.015 0.000 0.000 0 0
C554 N970 N971 163.0 0.015 0.000 0.000 0 0
C555 N933 N972 349.1 0.015 0.000 0.000 0 0
C556 N935 N973 264.1 0.015 1.925 0.000 0 0
C557 N974 N975 102.7 0.015 0.000 0.120 0 0
C558 N931 N976 270.4 0.015 0.140 0.000 0 0
C559 N929 N977 289.8 0.015 0.000 0.000 0 0
C560 N927 N978 282.1 0.015 0.000 0.651 0 0
C561 N925 N979 269.2 0.015 0.634 0.000 0 0
C562 N923 N980 280.3 0.015 0.000 0.000 0 0
C563 N978 N980 155.3 0.015 0.932 0.000 0 0
C564 N921 N981 254.6 0.015 0.000 0.000 0 0
C565 N919 N982 270.7 0.015 0.014 0.000 0 0
C566 N917 N983 148.6 0.015 0.000 0.000 0 0
C567 N984 N985 161.4 0.015 0.000 0.000 0 0
C568 N986 N987 417.0 0.015 0.000 0.000 0 0
C569 N988 N989 410.1 0.015 0.000 0.000 0 0
C570 N990 N991 559.3 0.015 0.000 0.000 0 0
C571 N992 N993 522.4 0.015 0.000 0.000 0 0
C572 N994 N995 129.5 0.015 0.000 0.000 0 0
C573 N996 N997 273.8 0.015 0.000 0.000 0 0
C574 N998 N999 158.1 0.015 0.000 0.000 0 0
C575 N1000 N1001 92.5 0.015 0.000 0.000 0 0
C576 N1002 N1003 402.4 0.015 0.000 0.000 0 0
C577 N1004 N1005 181.3 0.015 0.000 0.000 0 0
C578 N1006 N1007 139.8 0.015 0.000 0.000 0 0
C579 N1008 N1009 21.7 0.015 0.189 0.000 0 0
C580 N1010 N1011 256.1 0.015 0.190 0.000 0 0
C581 N1012 N1013 212.0 0.015 0.000 0.000 0 0
C582 N1014 N1015 65.3 0.015 0.000 0.000 0 0
C583 N887 N1016 424.6 0.015 0.757 0.000 0 0
C584 N1017 N1018 156.2 0.015 0.000 0.000 0 0
C585 N1019 N1020 108.0 0.015 0.000 0.000 0 0
C586 N1021 N1022 455.0 0.015 0.000 0.000 0 0
C587 N1023 N1024 254.5 0.015 0.000 0.000 0 0
C588 N1025 N1026 185.5 0.015 0.000 0.000 0 0
C589 N1027 N1028 122.6 0.015 0.000 0.000 0 0
C590 N1029 N1030 161.0 0.015 0.000 0.000 0 0
C591 N1031 N1032 162.8 0.015 0.000 0.000 0 0
C592 N1033 N1034 652.2 0.015 0.000 0.000 0 0
C593 N1035 N1036 202.4 0.015 0.000 0.000 0 0
C594 N1037 N1038 212.8 0.015 0.000 0.000 0 0
C595 N1039 N1040 84.9 0.015 0.000 0.000 0 0
C596 N1041 N1042 142.0 0.015 0.000 0.000 0 0
C597 N1043 N1044 18.5 0.015 0.000 0.000 0 0
C598 N1045 N1046 231.3 0.015 0.000 0.000 0 0
C599 N1047 N1048 363.0 0.015 0.000 0.000 0 0
C600 N1049 N1050 353.0 0.015 0.000 0.000 0 0
C601 N1051 N1052 152.5 0.015 0.000 0.000 0 0
C602 N1053 N1054 111.8 0.015 0.000 0.000 0 0
C603 N1055 N1056 55.0 0.015 0.000 0.000 0 0
C604 N1057 N1058 345.4 0.015 0.000 0.000 0 0
C605 N1059 N1060 323.8 0.015 0.000 0.000 0 0
C606 N1061 N1062 105.7 0.015 0.000 0.575 0 0
C607 N1063 N1064 167.5 0.015 0.000 0.000 0 0
C608 N1065 N1066 60.4 0.015 0.000 0.000 0 0
C609 N1067 N1068 245.4 0.015 0.000 0.000 0 0
C610 N1069 N1070 82.8 0.015 0.000 0.000 0 0
C611 N1071 N1072 186.7 0.015 0.000 0.000 0 0
C612 N1073 N1074 61.1 0.015 0.000 0.000 0 0
C613 N1075 N1076 109.7 0.015 0.000 0.000 0 0
C614 N1077 N1078 215.4 0.015 0.000 0.000 0 0
C615 N1079 N1080 528.9 0.015 0.000 0.000 0 0
C616 N1081 N1082 244.3 0.015 0.000 0.000 0 0
C617 N1083 N1084 141.6 0.03 0.000 0.000 0 0
C618 N1085 N1086 90.8 0.015 0.000 0.000 0 0
C619 N1087 N1062 430.1 0.03 0.000 0.000 0 0
C620 N1088 N1089 328.5 0.015 0.000 0.000 0 0
C621 N1090 N1091 322.3 0.015 0.000 0.000 0 0
C622 N1092 N1093 801.7 0.015 0.000 0.000 0 0
C623 N1094 N1095 793.7 0.015 1.664 0.000 0 0
C624 N1096 N1097 359.5 0.015 0.000 0.000 0 0
C625 N1093 N1098 943.6 0.015 0.775 0.000 0 0
C626 N1099 N1100 522.8 0.015 0.000 0.000 0 0
C627 N1101 N1102 285.9 0.015 0.000 0.000 0 0
C628 N1103 N1104 287.4 0.015 0.000 0.000 0 0
C629 N1105 N1106 316.8 0.015 0.000 0.000 0 0
C630 N1106 N1107 255.7 0.015 1.544 0.000 0 0
C631 N1108 N1109 235.1 0.015 0.000 0.162 0 0
C632 N1110 N1109 114.7 0.015 0.000 0.000 0 0
C633 N1107 N1111 309.7 0.015 0.077 0.000 0 0
C634 N1112 N1113 259.0 0.015 0.000 0.000 0 0
C635 N1114 N1115 257.3 0.015 0.000 0.000 0 0
C636 N1116 N1117 260.9 0.015 0.000 0.000 0 0
C637 N1118 N1119 255.3 0.015 0.000 0.000 0 0
C638 N1120 N1121 321.5 0.015 0.000 0.000 0 0
C639 N1122 N1123 310.3 0.015 0.000 0.000 0 0
C640 N1123 N1124 578.2 0.015 0.486 0.000 0 0
C641 N1125 N1126 451.7 0.015 0.667 0.000 0 0
C642 N1127 N1128 304.8 0.015 0.000 0.000 0 0
C643 N1129 N1130 208.2 0.015 0.000 0.312 0 0
C644 N1130 N1131 90.7 0.015 0.000 0.000 0 0
C645 N1132 N1133 1056.6 0.015 0.000 0.000 0 0
C646 N1134 N1135 1047.8 0.015 0.000 0.000 0 0
C647 N1135 N1136 771.2 0.015 0.818 0.000 0 0
C648 N1137 N1138 157.0 0.015 0.000 0.033 0 0
C649 N1138 N1139 237.1 0.015 0.000 0.000 0 0
C650 N1140 N1141 500.4 0.015 0.000 0.000 0 0
C651 N1142 N1143 222.8 0.015 0.000 0.000 0 0
C652 N1144 N1145 179.4 0.015 0.000 0.000 0 0
C653 N1146 N1147 264.9 0.015 0.000 0.000 0 0
C654 N1148 N1149 219.0 0.015 0.000 0.000 0 0
C655 N1150 N1151 271.9 0.015 0.000 0.000 0 0
C656 N1152 N1153 187.0 0.015 0.000 0.000 0 0
C657 N1154 N1155 367.5 0.015 0.000 0.000 0 0
C658 N1156 N1157 525.9 0.015 0.000 0.000 0 0
C659 N1158 N1159 717.1 0.015 0.000 0.000 0 0
C660 N1160 N1161 407.2 0.015 0.000 0.000 0 0
C661 N1162 N1163 377.5 0.015 0.000 0.000 0 0
C662 N1164 N1165 183.8 0.015 0.000 0.000 0 0
C663 N1166 N392 238.7 0.015 0.000 1.622 0 0
C664 N392 N1159 262.3 0.015 1.638 0.537 0 0
C665 N1167 N1168 190.1 0.015 0.000 0.000 0 0
C666 N1168 N1169 215.4 0.015 2.170 0.000 0 0
C667 N1170 N1171 179.3 0.015 0.000 0.000 0 0
C668 N1172 N1173 687.9 0.015 0.000 0.000 0 0
C669 N1158 N1174 209.2 0.015 2.264 0.006 0 0
C670 N1174 N1175 543.6 0.015 0.000 0.000 0 0
C671 N1176 N1177 362.6 0.015 0.000 0.000 0 0
C672 N1177 N1178 540.8 0.015 0.000 0.000 0 0
C673 N1179 N1180 654.2 0.015 0.000 1.563 0 0
C674 N1181 N1182 732.1 0.015 0.000 0.000 0 0
C675 N1183 N1180 220.1 0.015 0.000 0.000 0 0
C676 N1184 N1185 90.0 0.015 0.000 0.000 0 0
C677 N1185 N1186 193.3 0.015 0.000 0.000 0 0
C678 N1187 N1188 83.1 0.015 0.000 0.000 0 0
C679 N1189 N1190 495.3 0.015 0.000 0.000 0 0
C680 N1191 N1192 198.9 0.015 0.000 0.000 0 0
C681 N1193 N1194 86.7 0.015 0.000 0.000 0 0
C682 N1195 N1196 156.2 0.015 0.000 0.000 0 0
C683 N1197 N1198 230.2 0.015 0.000 0.000 0 0
C684 N1199 N1200 201.1 0.015 0.000 0.000 0 0
C685 N1201 N1202 782.5 0.015 0.000 0.000 0 0
C686 N1203 N1204 755.5 0.015 0.000 0.000 0 0
C687 N1205 N1206 938.1 0.015 0.000 0.000 0 0
C688 N1207 N1208 653.0 0.015 0.000 0.000 0 0
C689 N1209 N1210 201.1 0.015 0.000 0.000 0 0
C690 N1211 N1212 107.2 0.015 0.000 0.000 0 0
C691 N1213 N1214 90.6 0.015 0.000 0.000 0 0
C692 N1214 N1215 292.1 0.015 2.194 0.000 0 0
C693 N1204 N1216 754.9 0.015 1.591 0.000 0 0
C694 N1202 N1217 563.6 0.015 1.328 0.000 0 0
C695 N1208 N1218 278.8 0.015 0.033 0.000 0 0
C696 N1219 N1220 1035.6 0.015 0.000 0.000 0 0
C697 N1220 N1221 217.0 0.015 2.315 0.000 0 0
C698 N1222 N1223 259.3 0.015 0.000 0.000 0 0
C699 N1224 N1225 125.0 0.015 0.000 0.000 0 0
C700 N1225 N1226 143.7 0.015 0.650 0.000 0 0
C701 N1227 N1228 104.3 0.015 2.493 0.000 0 0
C702 N1229 N1227 122.8 0.015 0.000 0.000 0 0
C703 N1230 N1231 190.4 0.015 0.000 0.000 0 0
C704 N1232 N1233 127.5 0.015 0.000 0.000 0 0
C705 N1234 N1235 99.4 0.015 0.000 0.000 0 0
C706 N1236 N1237 537.4 0.03 0.000 0.000 0 0
C707 N1238 N1237 707.2 0.015 0.000 1.807 0 0
C708 N1239 N1240 696.2 0.015 0.000 0.000 0 0
C709 N1241 N1233 639.3 0.015 0.000 0.608 0 0
C710 N1242 N1243 91.4 0.015 0.000 0.000 0 0
C711 N1244 N1245 58.8 0.015 0.000 1.531 0 0
C712 N1246 N1247 162.6 0.015 0.000 0.000 0 0
C713 N1248 N1249 226.3 0.03 0.000 0.000 0 0
C714 N1245 N1250 94.1 0.015 0.000 0.000 0 0
C715 N1251 N1252 197.2 0.015 0.000 0.000 0 0
C716 N1253 N1254 491.7 0.015 0.000 0.000 0 0
C717 N1255 N1256 421.7 0.015 0.000 0.000 0 0
C718 N1257 N1258 127.3 0.015 0.488 0.000 0 0
C719 N1259 N1257 137.7 0.015 0.000 0.000 0 0
C720 N1260 N1261 610.8 0.03 0.000 0.000 0 0
C721 N1262 N1263 10.0 0.015 0.000 0.000 0 0
C722 N1264 N1265 139.2 0.015 0.000 0.000 0 0
C723 N1265 N1266 67.0 0.015 1.482 0.000 0 0
C724 N1266 N1267 246.6 0.015 2.300 0.000 0 0
C725 N1268 N1269 270.5 0.015 0.000 0.000 0 0
C726 N1270 N1271 294.3 0.015 0.000 0.000 0 0
C727 N1272 N1273 339.1 0.015 0.000 0.000 0 0
C728 N1274 N1275 98.0 0.015 0.000 0.000 0 0
C729 N1276 N1277 154.2 0.015 0.000 0.000 0 0
C730 N1278 N1279 433.4 0.015 0.000 0.000 0 0
C731 N1280 N1281 103.3 0.015 0.000 0.000 0 0
C732 N1282 N1283 121.3 0.015 0.000 0.000 0 0
C733 N1284 N1285 116.7 0.015 0.000 0.000 0 0
C734 N1286 N1287 372.1 0.015 0.000 0.000 0 0
C735 N1288 N1289 157.7 0.015 3.070 0.000 0 0
C736 N1290 N1291 133.1 0.015 0.000 0.000 0 0
C737 N1291 N1288 457.9 0.015 3.056 0.000 0 0
C738 N1292 N1293 63.4 0.015 0.000 0.000 0 0
C739 N1293 N1294 196.8 0.015 0.644 0.000 0 0
C740 N1295 N1296 498.7 0.015 0.000 0.000 0 0
C741 N1297 N1298 399.9 0.015 0.000 0.000 0 0
C742 N1299 N1300 251.0 0.015 0.000 0.000 0 0
C743 N1300 N1301 189.9 0.015 1.104 0.000 0 0
C744 N1302 N1303 714.2 0.015 0.000 0.000 0 0
C745 N1304 N1305 365.3 0.015 0.000 0.000 0 0
C746 N1306 N1307 137.7 0.015 0.000 0.000 0 0
C747 N1308 N1309 276.9 0.015 0.000 0.000 0 0
C748 N1310 N1311 86.0 0.015 0.000 0.000 0 0
C749 N1312 N1313 317.1 0.015 0.000 0.000 0 0
C750 N1314 N1315 188.8 0.015 0.000 0.000 0 0
C751 N1316 N1317 258.5 0.015 0.000 0.000 0 0
C752 N1318 N1319 287.1 0.015 0.000 0.000 0 0
C753 N1320 N1321 182.8 0.015 0.000 0.000 0 0
C754 N1321 N1322 182.3 0.015 0.000 0.000 0 0
C755 N1322 N1323 744.1 0.015 0.050 0.000 0 0
C756 N1324 N1325 102.2 0.015 0.000 0.000 0 0
C757 N1326 N1327 65.2 0.015 0.000 0.000 0 0
C758 N1328 N1329 166.0 0.015 0.000 0.000 0 0
C759 N1330 N1331 113.0 0.015 0.000 0.000 0 0
C760 N1332 N1333 106.3 0.015 0.000 0.000 0 0
C761 N1334 N1335 44.2 0.015 0.000 0.000 0 0
C762 N1336 N1337 90.9 0.015 0.000 0.000 0 0
C763 N1338 N1339 156.7 0.015 0.000 0.000 0 0
C764 N1340 N1341 125.8 0.015 0.000 0.000 0 0
C765 N1342 N1343 52.4 0.015 0.000 0.000 0 0
C766 N1344 N1345 580.6 0.015 0.000 0.214 0 0
C767 N1346 N1347 524.4 0.015 0.000 0.000 0 0
C768 N1348 N1349 278.9 0.015 0.000 0.000 0 0
C769 N1350 N1351 270.8 0.015 0.000 0.891 0 0
C770 N1351 N1352 157.1 0.015 0.000 0.000 0 0
C771 N1353 N1354 38.0 0.015 0.000 0.000 0 0
C772 N1355 N1356 152.1 0.015 0.000 0.000 0 0
C773 N1357 N1358 147.6 0.015 0.000 0.000 0 0
C774 N1359 N1360 314.3 0.015 0.000 0.000 0 0
C775 N1361 N1362 310.1 0.015 0.000 0.000 0 0
C776 N1363 N1364 220.0 0.015 0.000 0.142 0 0
C777 N1365 N1366 133.0 0.015 0.000 0.000 0 0
C778 N1367 N1368 218.5 0.015 0.000 0.000 0 0
C779 N1369 N1345 204.4 0.015 0.000 0.000 0 0
C780 N1370 N1371 133.7 0.015 0.000 0.000 0 0
C781 N1372 N1373 112.3 0.015 0.000 0.000 0 0
C782 N1374 N1375 170.1 0.015 0.318 0.000 0 0
C783 N1376 N1377 136.3 0.015 0.000 0.000 0 0
C784 N1378 N1379 36.3 0.015 0.000 0.000 0 0
C785 N1380 N1381 384.0 0.015 0.000 0.000 0 0
C786 N1347 N1382 184.4 0.015 0.583 0.000 0 0
C787 N1383 N1384 100.4 0.015 0.000 0.000 0 0
C788 N1385 N1386 140.2 0.015 1.590 0.000 0 0
C789 N1387 N1388 134.6 0.015 0.000 0.000 0 0
C790 N1389 N1390 133.7 0.015 0.000 0.000 0 0
C791 N1391 N1392 133.4 0.015 0.641 0.000 0 0
C792 N1393 N1394 133.4 0.015 0.000 0.000 0 0
C793 N1395 N1396 221.3 0.015 0.000 0.000 0 0
C794 N1396 N1397 182.4 0.015 0.042 0.000 0 0
C795 N1398 N1399 64.2 0.015 0.000 0.000 0 0
C796 N1400 N1401 39.5 0.015 0.000 0.000 0 0
C797 N1402 N1403 92.0 0.015 0.000 0.000 0 0
C798 N1392 N1364 352.5 0.015 0.575 0.000 0 0
C799 N1404 N1405 344.4 0.015 1.593 0.000 0 0
C800 N1404 N1406 599.7 0.015 0.000 0.000 0 0
C801 N1407 N1408 191.3 0.015 0.000 0.000 0 0
C802 N1409 N1410 80.1 0.015 0.000 0.000 0 0
C803 N1410 N1411 105.0 0.015 0.482 0.000 0 0
C804 N1412 N1413 590.8 0.015 0.000 0.000 0 0
C805 N1414 N1415 392.6 0.015 0.000 0.000 0 0
C806 N1415 N1416 141.1 0.015 0.000 0.000 0 0
C807 N1417 N1418 98.8 0.015 0.000 0.000 0 0
C808 N1419 N1420 91.3 0.015 0.000 0.000 0 0
C809 N1421 N1422 114.0 0.015 0.000 0.000 0 0
C810 N1423 N1424 48.2 0.015 0.000 0.000 0 0
C811 N1425 N1426 146.0 0.015 0.000 0.000 0 0
C812 N1426 N1427 83.7 0.015 0.000 0.000 0 0
C813 N1428 N1429 151.5 0.015 0.000 0.000 0 0
C814 N1430 N1431 142.6 0.015 0.000 0.000 0 0
C815 N1406 N1432 125.8 0.015 0.301 0.000 0 0
C816 N1433 N1434 475.1 0.015 0.000 0.000 0 0
C817 N1435 N1436 482.5 0.015 0.000 0.000 0 0
C818 N1437 N1438 173.6 0.015 0.000 0.000 0 0
C819 N1439 N1440 138.2 0.015 0.000 0.000 0 0
C820 N1440 N1441 167.4 0.015 0.000 0.000 0 0
C821 N1442 N1443 223.2 0.015 0.000 0.000 0 0
C822 N1444 N1445 222.9 0.015 0.000 0.000 0 0
C823 N1446 N1447 102.0 0.015 0.000 0.000 0 0
C824 N1448 N1449 272.3 0.015 0.000 0.000 0 0
C825 N1450 N1451 68.2 0.015 0.000 0.000 0 0
C826 N1452 N1453 402.6 0.015 0.252 0.000 0 0
C827 N1453 N1454 70.0 0.015 0.260 0.000 0 0
C828 N1384 N1385 300.1 0.015 0.246 0.000 0 0
C829 N1385 N1391 128.7 0.015 0.887 0.000 0 0
C830 N1455 N1456 204.7 0.015 0.000 0.000 0 0
C831 N1457 N1453 168.6 0.015 0.000 0.260 0 0
C832 N1458 N1459 213.9 0.015 0.000 0.000 0 0
C833 N1365 N1460 445.8 0.015 0.000 0.000 0 0
C834 N1461 N1462 147.2 0.015 0.000 0.000 0 0
C835 N1462 N1374 60.3 0.015 0.178 0.000 0 0
C836 N1463 N1464 129.9 0.015 0.000 0.000 0 0
C837 N1464 N1465 421.5 0.015 0.092 0.000 0 0
C838 N1466 N1467 65.9 0.015 0.000 0.535 0 0
C839 N1468 N1469 108.0 0.015 0.000 0.000 0 0
C840 N1436 N1470 62.0 0.015 0.444 0.000 0 0
C841 N1471 N1472 483.3 0.015 0.000 0.000 0 0
C842 N1473 N1474 170.4 0.015 0.000 0.000 0 0
C843 N1475 N1476 690.5 0.015 0.000 0.000 0 0
C844 N1474 N1477 194.7 0.015 0.630 0.000 0 0
C845 N1478 N1479 526.7 0.015 0.772 0.000 0 0
C846 N1480 N1481 240.7 0.015 0.000 0.000 0 0
C847 N1482 N1478 218.1 0.015 0.000 0.000 0 0
C848 N1483 N1484 226.1 0.015 0.000 0.000 0 0
C849 N1485 N1486 458.5 0.015 0.000 0.000 0 0
C850 N1487 N1488 45.0 0.015 0.000 0.000 0 0
C851 N1489 N1490 139.5 0.015 0.000 0.000 0 0
C852 N1491 N1492 88.4 0.015 0.000 0.000 0 0
C853 N1492 N1493 242.0 0.015 0.313 0.000 0 0
C854 N1494 N1493 62.9 0.015 0.000 0.113 0 0
C855 N1495 N1496 108.4 0.015 0.000 0.000 0 0
C856 N1497 N1498 237.3 0.015 0.000 0.000 0 0
C857 N1499 N1500 557.8 0.015 0.000 0.000 0 0
C858 N1501 N1502 93.9 0.015 0.000 0.000 0 0
C859 N1503 N1504 132.0 0.015 0.000 0.000 0 0
C860 N1505 N1506 139.7 0.015 0.000 0.000 0 0
C861 N1507 N1502 132.7 0.015 0.000 0.000 0 0
C862 N1508 N1509 137.7 0.015 0.000 0.516 0 0
C863 N1510 N1511 136.8 0.015 0.000 0.000 0 0
C864 N1509 N1512 108.8 0.015 0.000 0.000 0 0
C865 N1506 N1513 206.8 0.015 0.453 0.000 0 0
C866 N1514 N1515 217.5 0.015 0.000 0.000 0 0
C867 N1516 N1517 253.9 0.015 0.000 0.000 0 0
C868 N1518 N1519 87.1 0.015 0.000 0.000 0 0
C869 N1520 N1521 189.3 0.015 0.000 0.000 0 0
C870 N1522 N1523 186.0 0.015 0.000 0.000 0 0
C871 N1524 N1525 165.5 0.015 0.000 0.000 0 0
C872 N1526 N1527 78.3 0.015 0.000 0.000 0 0
C873 N1527 N1528 63.5 0.015 0.000 0.000 0 0
C874 N1528 N1529 68.4 0.015 0.149 0.000 0 0
C875 N1530 N1531 162.6 0.015 0.000 0.000 0 0
C876 N1531 N1532 199.6 0.015 0.345 0.000 0 0
C877 N1533 N1534 118.5 0.015 0.000 0.000 0 0
C878 N1535 N1536 119.7 0.015 0.000 0.000 0 0
C879 N1537 N1538 69.2 0.015 0.000 0.000 0 0
C880 N1539 N1540 116.9 0.015 0.000 0.000 0 0
C881 N1541 N1542 134.4 0.015 0.000 0.000 0 0
C882 N1486 N1543 106.8 0.015 0.915 0.000 0 0
C883 N1544 N1545 257.7 0.015 0.000 0.000 0 0
C884 N1546 N1547 225.6 0.015 0.000 0.000 0 0
C885 N1548 N1549 118.2 0.015 0.000 0.000 0 0
C886 N1550 N1551 105.2 0.015 0.000 0.000 0 0
C887 N1552 N1553 698.3 0.015 0.000 0.000 0 0
C888 N1554 N1555 635.1 0.015 0.000 0.000 0 0
C889 N1556 N1557 131.7 0.015 0.000 0.000 0 0
C890 N1558 N1467 365.5 0.015 0.000 0.000 0 0
C891 N1337 N1559 119.2 0.015 0.340 0.000 0 0
C892 N1560 N1561 80.5 0.015 0.000 0.000 0 0
C893 N1562 N1563 49.9 0.015 0.000 0.000 0 0
C894 N1563 N1564 322.0 0.015 0.585 0.000 0 0
C895 N1565 N1566 144.6 0.015 0.000 0.000 0 0
C896 N1567 N1568 183.7 0.015 0.000 0.000 0 0
C897 N1569 N1570 110.2 0.015 0.000 0.000 0 0
C898 N1564 N1571 189.1 0.015 0.000 0.000 0 0
C899 N1572 N1573 110.6 0.015 0.000 0.000 0 0
C900 N1574 N1575 62.4 0.015 0.000 0.000 0 0
C901 N1576 N1577 79.2 0.015 0.000 0.000 0 0
C902 N1578 N1579 208.0 0.015 0.000 0.298 0 0
C903 N1580 N1579 107.1 0.015 0.000 0.000 0 0
C904 N1579 N1581 141.4 0.015 0.632 0.000 0 0
C905 N1582 N1583 144.4 0.015 0.000 0.000 0 0
C906 N1584 N1585 85.0 0.015 0.000 0.000 0 0
C907 N1586 N1587 111.5 0.015 0.000 0.000 0 0
C908 N1588 N1589 127.9 0.015 0.000 0.000 0 0
C909 N1590 N1591 51.2 0.015 2.359 0.000 0 0
C910 N1592 N1593 166.9 0.015 0.000 0.000 0 0
C911 N1593 N1590 70.3 0.015 0.293 0.000 0 0
C912 N1594 N1595 176.5 0.015 0.000 0.000 0 0
C913 N1595 N1596 243.4 0.015 0.102 0.000 0 0
C914 N1597 N1598 240.2 0.015 0.000 0.000 0 0
C915 N1599 N1600 151.0 0.015 0.000 0.000 0 0
C916 N1601 N1602 59.0 0.015 0.000 0.000 0 0
C917 N1603 N1604 59.9 0.015 0.000 0.000 0 0
C918 N1605 N1606 65.1 0.015 0.000 0.000 0 0
C919 N1607 N1608 67.6 0.015 0.000 0.000 0 0
C920 N1609 N1610 153.1 0.015 0.000 0.000 0 0
C921 N1611 N1612 164.7 0.015 0.000 0.000 0 0
C922 N1613 N1614 166.2 0.015 0.000 0.000 0 0
C923 N1615 N1616 120.7 0.015 0.000 0.000 0 0
C924 N1617 N1618 138.4 0.015 0.000 0.000 0 0
C925 N1618 N1619 72.1 0.015 0.000 0.000 0 0
C926 N1620 N1621 178.5 0.015 0.000 0.000 0 0
C927 N1621 N1622 109.8 0.015 0.793 0.000 0 0
C928 N1623 N1624 310.7 0.015 0.000 0.000 0 0
C929 N1624 N1625 239.3 0.015 0.000 0.000 0 0
C930 N1623 N1626 261.9 0.015 1.189 0.000 0 0
C931 N1626 N1627 341.2 0.015 0.685 0.000 0 0
C932 N1628 N1629 7.6 0.015 0.000 0.000 0 0
C933 N1630 N1631 81.0 0.015 0.000 0.000 0 0
C934 N1632 N1633 80.4 0.015 0.000 0.000 0 0
C935 N1634 N1623 114.1 0.015 0.000 0.000 0 0
C936 N1635 N1636 54.0 0.015 0.000 0.000 0 0
C937 N1637 N1638 348.7 0.015 0.000 0.000 0 0
C938 N1639 N1640 824.8 0.015 0.000 0.000 0 0
C939 N1641 N1642 327.8 0.015 0.000 0.000 0 0
C940 N1643 N1644 78.7 0.015 0.000 0.000 0 0
C941 N1645 N1646 85.1 0.015 0.000 0.000 0 0
C942 N1647 N1642 86.7 0.015 0.000 2.883 0 0
C943 N1648 N1649 88.1 0.015 0.000 0.000 0 0
C944 N1650 N1651 42.3 0.015 0.000 0.000 0 0
C945 N1652 N1653 139.5 0.015 0.000 0.000 0 0
C946 N1654 N1655 536.2 0.015 0.000 0.000 0 0
C947 N1656 N1657 261.6 0.015 0.000 0.000 0 0
C948 N1658 N1659 157.3 0.015 0.000 0.000 0 0
C949 N1660 N1661 172.6 0.015 0.000 0.000 0 0
C950 N1662 N1663 276.5 0.015 0.000 0.000 0 0
C951 N1664 N1665 145.1 0.015 0.000 0.000 0 0
C952 N1666 N1667 76.0 0.015 0.000 0.000 0 0
C953 N1668 N1669 58.8 0.015 0.000 0.000 0 0
C954 N1670 N1671 160.4 0.015 0.000 0.000 0 0
C955 N1595 N1672 213.0 0.015 0.692 0.000 0 0
C956 N1673 N1674 64.5 0.015 0.000 0.000 0 0
C957 N1675 N1676 72.2 0.015 0.000 0.000 0 0
C958 N1677 N1678 114.3 0.015 0.000 0.000 0 0
C959 N1678 N1679 96.6 0.015 0.000 0.000 0 0
C960 N1680 N1681 256.8 0.015 0.000 0.000 0 0
C961 N1682 N1683 40.4 0.015 0.000 0.000 0 0
C962 N1684 N1685 42.9 0.015 0.000 0.000 0 0
C963 N1685 N1686 83.8 0.015 0.065 0.000 0 0
C964 N1687 N1688 73.8 0.015 0.000 0.000 0 0
C965 N1689 N1690 181.7 0.015 0.000 0.000 0 0
C966 N1691 N1692 65.3 0.015 0.000 0.000 0 0
C967 N1692 N1693 115.5 0.015 0.373 0.000 0 0
C968 N1694 N1695 38.5 0.015 0.000 0.000 0 0
C969 N1696 N1697 60.9 0.015 0.000 0.000 0 0
C970 N1698 N1699 53.4 0.015 0.000 0.000 0 0
C971 N1700 N1701 196.1 0.015 0.000 0.000 0 0
C972 N1702 N1703 40.9 0.015 0.000 0.000 0 0
C973 N1704 N1705 128.4 0.015 0.000 0.000 0 0
C974 N1706 N1707 73.5 0.015 0.000 0.000 0 0
C975 N1708 N1709 143.5 0.015 0.000 0.000 0 0
C976 N1710 N1711 80.3 0.015 0.000 0.000 0 0
C977 N1712 N1713 87.8 0.015 0.000 0.000 0 0
C978 N1713 N1714 117.8 0.015 0.255 0.000 0 0
C979 N1715 N1701 58.9 0.015 0.000 0.000 0 0
C980 N1716 N1717 50.7 0.015 0.000 0.000 0 0
C981 N1715 N1718 94.7 0.015 1.340 0.000 0 0
C982 N1718 N1719 188.4 0.015 2.025 0.000 0 0
C983 N1719 N1720 101.4 0.03 0.633 0.000 0 0
C984 N1721 N1722 250.3 0.015 0.000 0.000 0 0
C985 N1722 N1723 63.6 0.015 0.751 0.000 0 0
C986 N1724 N1725 56.5 0.015 0.000 0.000 0 0
C987 N1726 N1727 107.0 0.015 0.000 0.000 0 0
C988 N1727 N1728 73.5 0.015 0.077 0.000 0 0
C989 N1729 N1730 72.9 0.015 0.000 0.000 0 0
C990 N1731 N1732 97.8 0.015 0.000 0.000 0 0
C991 N1733 N1734 115.9 0.015 0.000 0.000 0 0
C992 N1735 N1736 190.9 0.015 0.000 0.000 0 0
C993 N1736 N1737 80.7 0.015 0.000 0.000 0 0
C994 N1738 N1739 106.5 0.015 0.000 0.000 0 0
C995 N1740 N1741 172.3 0.015 0.000 0.000 0 0
C996 N1742 N1743 157.9 0.015 0.000 0.000 0 0
C997 N1744 N1745 47.7 0.015 0.000 0.000 0 0
C998 N1746 N1747 44.6 0.015 0.000 0.000 0 0
C999 N1748 N1749 107.1 0.015 0.000 0.000 0 0
C1000 N1750 N1751 40.5 0.015 0.000 0.000 0 0
C1001 N1752 N1753 52.5 0.015 0.000 0.000 0 0
C1002 N1754 N1755 41.9 0.015 0.000 0.000 0 0
C1003 N1756 N1748 9.4 0.015 0.000 0.000 0 0
C1004 N1757 N1716 49.5 0.015 0.000 0.000 0 0
C1005 N1679 N1758 45.6 0.015 0.066 0.000 0 0
C1006 N1759 N1760 541.7 0.015 0.000 0.000 0 0
C1007 N1761 N1762 559.2 0.015 0.000 0.000 0 0
C1008 N1762 N1763 382.2 0.015 0.204 0.000 0 0
C1009 N1764 N1765 72.5 0.015 0.000 0.000 0 0
C1010 N1766 N1767 139.3 0.015 0.000 0.000 0 0
C1011 N1768 N1769 50.5 0.015 0.000 0.000 0 0
C1012 N1770 N1771 186.7 0.015 0.000 0.000 0 0
C1013 N1772 N1773 84.7 0.015 0.000 0.000 0 0
C1014 N1774 N1775 90.3 0.015 0.000 0.000 0 0
C1015 N1776 N1777 72.6 0.015 0.000 0.000 0 0
C1016 N1778 N1779 66.3 0.015 0.000 0.000 0 0
C1017 N1780 N1781 199.8 0.015 0.000 0.000 0 0
C1018 N1782 N1783 121.1 0.015 0.000 0.000 0 0
C1019 N1784 N1785 459.8 0.015 0.000 0.000 0 0
C1020 N1786 N1787 445.4 0.015 0.000 0.000 0 0
C1021 N1788 N1789 52.6 0.015 0.000 0.000 0 0
C1022 N1790 N1791 50.1 0.015 0.000 0.000 0 0
C1023 N1792 N1793 72.0 0.015 0.000 0.000 0 0
C1024 N1794 N1795 71.1 0.015 0.000 0.000 0 0
C1025 N1796 N1797 13.9 0.015 0.000 0.000 0 0
C1026 N1798 N1799 196.3 0.015 0.000 0.000 0 0
C1027 N1800 N1801 162.1 0.015 1.053 0.000 0 0
C1028 N1802 N1803 162.1 0.015 1.015 0.000 0 0
C1029 N1804 N1805 31.1 0.015 2.879 0.000 0 0
C1030 N1806 N1807 36.9 0.015 1.408 0.000 0 0
C1031 N1808 N1809 72.7 0.015 0.586 0.000 0 0
C1032 N1809 N1810 23.4 0.015 1.149 0.000 0 0
C1033 N1811 N1812 73.5 0.015 0.000 0.000 0 0
C1034 N1813 N1811 40.9 0.015 0.000 0.533 0 0
C1035 N1814 N1815 59.1 0.015 0.000 0.000 0 0
C1036 N1816 N1817 159.9 0.015 0.000 0.000 0 0
C1037 N1817 N1818 200.6 0.015 0.780 0.000 0 0
C1038 N1819 N1820 91.5 0.015 0.000 0.000 0 0
C1039 N1821 N1822 56.6 0.015 0.000 0.000 0 0
C1040 N1823 N1824 154.6 0.015 0.000 0.000 0 0
C1041 N1825 N1826 160.4 0.015 0.000 0.000 0 0
C1042 N1827 N1828 174.8 0.015 0.053 0.000 0 0
C1043 N1828 N1829 110.4 0.015 0.951 0.000 0 0
C1044 N1830 N1831 166.0 0.015 0.000 0.000 0 0
C1045 N1832 N1833 193.3 0.015 0.000 0.000 0 0
C1046 N1834 N1835 68.6 0.015 0.000 0.000 0 0
C1047 N1836 N1837 59.3 0.015 0.000 0.000 0 0
C1048 N1838 N1839 240.2 0.015 0.000 0.000 0 0
C1049 N1840 N1841 198.2 0.015 0.000 0.000 0 0
C1050 N1842 N1843 86.6 0.015 0.000 0.000 0 0
C1051 N1844 N1845 89.5 0.03 0.000 0.000 0 0
C1052 N1846 N1847 99.0 0.015 0.000 0.000 0 0
C1053 N1848 N1849 106.4 0.015 0.000 0.000 0 0
C1054 N1850 N1851 167.7 0.015 0.000 0.754 0 0
C1055 N1852 N1853 276.7 0.015 0.000 0.000 0 0
C1056 N1854 N1855 848.1 0.015 0.000 2.091 0 0
C1057 N1856 N1857 290.0 0.015 0.000 0.000 0 0
C1058 N1839 N1858 866.9 0.015 0.492 0.452 0 0
C1059 N1859 N1860 64.7 0.015 0.000 0.000 0 0
C1060 N1861 N1862 99.9 0.015 0.000 0.000 0 0
C1061 N1863 N1864 171.0 0.015 0.000 0.000 0 0
C1062 N1865 N1866 169.7 0.015 0.000 1.822 0 0
C1063 N1867 N1868 197.3 0.015 0.000 0.000 0 0
C1064 N1869 N1870 170.3 0.015 0.000 0.000 0 0
C1065 N1871 N1872 544.1 0.015 0.000 0.000 0 0
C1066 N1872 N1873 271.9 0.015 1.528 0.000 0 0
C1067 N1874 N1875 137.8 0.015 0.000 0.000 0 0
C1068 N1876 N1877 124.7 0.015 0.000 0.000 0 0
C1069 N1878 N1879 208.8 0.03 0.000 0.000 0 0
C1070 N1880 N1881 150.6 0.015 0.000 0.000 0 0
C1071 N1882 N1883 152.2 0.015 0.000 0.000 0 0
C1072 N1884 N1885 182.3 0.015 0.000 0.000 0 0
C1073 N1886 N1887 186.1 0.015 0.000 0.000 0 0
C1074 N1888 N1889 326.9 0.015 0.000 0.000 0 0
C1075 N1853 N1890 57.1 0.015 0.058 0.000 0 0
C1076 N1891 N1892 200.1 0.015 0.000 0.000 0 0
C1077 N1893 N1894 213.9 0.015 0.000 0.000 0 0
C1078 N1895 N1896 110.2 0.03 0.000 0.000 0 0
C1079 N1897 N1898 33.9 0.015 0.000 0.000 0 0
C1080 N1899 N1900 209.0 0.015 0.000 0.000 0 0
C1081 N1901 N1902 225.1 0.015 0.000 0.000 0 0
C1082 N1903 N1904 160.4 0.015 0.000 0.000 0 0
C1083 N1905 N1906 391.4 0.015 0.000 0.000 0 0
C1084 N1907 N1908 318.0 0.015 0.000 0.000 0 0
C1085 N1909 N1910 107.4 0.015 0.098 0.000 0 0
C1086 N1910 N1909 107.4 0.015 0.232 0.000 0 0
C1087 N1911 N1912 80.7 0.015 0.000 0.000 0 0
C1088 N1913 N1914 113.7 0.015 0.298 0.000 0 0
C1089 N1915 N1916 29.6 0.015 0.000 0.000 0 0
C1090 N1917 N1918 82.3 0.015 0.000 0.000 0 0
C1091 N1916 N1919 194.1 0.015 0.049 0.821 0 0
C1092 N1920 N1921 165.9 0.015 0.000 0.000 0 0
C1093 N1922 N1923 49.0 0.015 0.000 0.000 0 0
C1094 N1923 N1924 151.9 0.015 0.000 0.000 0 0
C1095 N1925 N1926 73.6 0.03 0.000 0.000 0 0
C1096 N1927 N1928 154.1 0.015 0.000 0.000 0 0
C1097 N1929 N1930 120.9 0.015 0.000 0.000 0 0
C1098 N1931 N1932 115.9 0.015 0.000 0.000 0 0
C1099 N1933 N1934 601.9 0.015 0.000 0.000 0 0
C1100 N1935 N1936 74.8 0.015 0.000 0.000 0 0
C1101 N1937 N1938 75.7 0.015 0.000 0.000 0 0
C1102 N1939 N1940 172.9 0.015 0.000 0.000 0 0
C1103 N1941 N1942 169.4 0.03 0.000 0.000 0 0
C1104 N1943 N1944 129.9 0.015 0.000 0.000 0 0
C1105 N1945 N1946 52.4 0.015 0.000 0.000 0 0
C1106 N1947 N1948 57.5 0.015 0.000 0.000 0 0
C1107 N1948 N1949 39.7 0.015 0.000 0.000 0 0
C1108 N1949 N1950 63.1 0.015 0.374 0.000 0 0
C1109 N1951 N1952 82.7 0.015 0.000 0.000 0 0
C1110 N1952 N1953 38.4 0.015 0.000 0.000 0 0
C1111 N1954 N1806 32.5 0.015 0.000 0.000 0 0
C1112 N1805 N1955 24.9 0.015 0.000 0.000 0 0
C1113 N1956 N1827 48.0 0.015 0.000 0.000 0 0
C1114 N1957 N1927 129.6 0.015 0.000 0.000 0 0
C1115 N1958 N1901 165.0 0.015 0.000 0.000 0 0
C1116 N1959 N1945 39.6 0.015 0.000 0.000 0 0
C1117 N1960 N1851 105.3 0.015 0.000 0.000 0 0
C1118 N1961 N1962 101.1 0.015 0.000 1.437 0 0
C1119 N1963 N1964 106.4 0.015 0.000 0.000 0 0
C1120 N1965 N1966 52.5 0.015 0.000 0.000 0 0
C1121 N1966 N1967 34.4 0.015 0.000 0.000 0 0
C1122 N1967 N1968 84.3 0.015 0.352 0.000 0 0
C1123 N1969 N1970 234.5 0.015 0.000 0.000 0 0
C1124 N1971 N1972 377.2 0.015 0.000 0.000 0 0
C1125 N1973 N1974 386.9 0.015 0.000 0.000 0 0
C1126 N1975 N1976 84.0 0.03 0.000 0.000 0 0
C1127 N1977 N1978 112.8 0.03 0.000 0.000 0 0
C1128 N1974 N1979 215.9 0.015 0.000 0.000 0 0
C1129 N1980 N1981 100.9 0.015 0.000 0.000 0 0
C1130 N1982 N1983 143.7 0.015 0.000 0.000 0 0
C1131 N1984 N1983 56.7 0.015 0.000 0.000 0 0
C1132 N1985 N1986 46.2 0.015 0.000 0.000 0 0
C1133 N1987 N1988 121.5 0.015 0.000 0.000 0 0
C1134 N1989 N1990 160.8 0.015 0.000 0.000 0 0
C1135 N1990 N1991 197.1 0.015 0.964 0.000 0 0
C1136 N1992 N1993 198.4 0.015 0.000 0.000 0 0
C1137 N1994 N1995 227.1 0.015 0.041 0.000 0 0
C1138 N1994 N1996 337.7 0.015 0.000 0.000 0 0
C1139 N1997 N1998 188.6 0.015 0.000 0.000 0 0
C1140 N1999 N2000 107.8 0.015 0.000 0.000 0 0
C1141 N2001 N2002 226.4 0.015 0.000 0.000 0 0
C1142 N2003 N2004 465.6 0.015 0.000 0.000 0 0
C1143 N2005 N2006 131.7 0.015 0.000 0.000 0 0
C1144 N2007 N2008 66.2 0.015 0.000 0.000 0 0
C1145 N2008 N2009 66.8 0.015 0.075 0.000 0 0
C1146 N2010 N2011 305.9 0.015 0.000 0.000 0 0
C1147 N2012 N2013 267.5 0.015 0.000 0.000 0 0
C1148 N2013 N2014 82.3 0.03 0.372 0.000 0 0
C1149 N2015 N2016 97.2 0.015 0.000 0.000 0 0
C1150 N2017 N2018 98.7 0.015 0.000 0.000 0 0
C1151 N2019 N2020 270.7 0.015 0.000 0.000 0 0
C1152 N2021 N2022 228.6 0.015 0.000 0.000 0 0
C1153 N2022 N2023 133.2 0.015 0.000 0.000 0 0
C1154 N2024 N2025 101.6 0.03 0.000 0.000 0 0
C1155 N2026 N2027 331.2 0.015 0.000 0.000 0 0
C1156 N2028 N2029 129.1 0.03 0.000 0.000 0 0
C1157 N2030 N2031 141.4 0.015 0.000 0.000 0 0
C1158 N2032 N2023 89.7 0.015 0.000 0.000 0 0
C1159 N2033 N2034 126.0 0.015 0.000 0.000 0 0
C1160 N2035 N2036 126.5 0.015 0.000 0.000 0 0
C1161 N2037 N2038 116.3 0.015 0.000 0.000 0 0
C1162 N2039 N2040 214.1 0.015 0.000 0.000 0 0
C1163 N2041 N2042 89.8 0.015 0.000 0.000 0 0
C1164 N2043 N2044 114.1 0.015 0.000 0.000 0 0
C1165 N2045 N2046 123.6 0.015 0.424 0.000 0 0
C1166 N2047 N2048 458.1 0.015 0.396 0.000 0 0
C1167 N2049 N2050 225.6 0.015 0.000 0.000 0 0
C1168 N2051 N2052 226.2 0.015 0.000 0.000 0 0
C1169 N2053 N2054 233.3 0.03 0.000 0.000 0 0
C1170 N2055 N2056 246.8 0.015 0.000 0.000 0 0
C1171 N2057 N2058 253.4 0.015 0.000 0.000 0 0
C1172 N2058 N2059 417.9 0.03 0.000 0.000 0 0
C1173 N2060 N2061 152.2 0.015 0.000 0.000 0 0
C1174 N2062 N2063 111.9 0.03 0.000 0.000 0 0
C1175 N2064 N2065 82.0 0.03 0.000 0.000 0 0
C1176 N2066 N2067 272.3 0.015 0.000 0.000 0 0
C1177 N2047 N2068 280.1 0.015 0.000 0.000 0 0
C1178 N2069 N2070 316.3 0.015 0.000 0.000 0 0
C1179 N2071 N2072 185.5 0.015 0.000 0.000 0 0
C1180 N2073 N2074 27.0 0.015 0.000 0.000 0 0
C1181 N2075 N2076 109.1 0.015 0.000 0.000 0 0
C1182 N2077 N2078 49.6 0.015 0.000 0.000 0 0
C1183 N2078 N2079 12.4 0.015 0.000 0.000 0 0
C1184 N2080 N2081 744.0 0.015 0.000 0.000 0 0
C1185 N2082 N2083 77.1 0.015 0.000 0.000 0 0
C1186 N2084 N2085 199.7 0.015 0.000 0.000 0 0
C1187 N2086 N2087 197.9 0.015 0.000 0.000 0 0
C1188 N2088 N2089 22.7 0.015 0.000 0.000 0 0
C1189 N2090 N2091 164.5 0.015 0.000 0.000 0 0
C1190 N2092 N2093 17.9 0.015 0.000 0.000 0 0
C1191 N2094 N2095 182.6 0.03 0.000 0.000 0 0
C1192 N2096 N2097 159.2 0.015 0.000 0.000 0 0
C1193 N2097 N2098 69.8 0.015 0.000 0.000 0 0
C1194 N2099 N1798 248.2 0.015 0.000 0.000 0 0
C1195 N2100 N2101 75.5 0.015 0.000 0.000 0 0
C1196 N2101 N2102 130.2 0.015 0.581 0.000 0 0
C1197 N2103 N1821 64.9 0.015 0.000 0.110 0 0
C1198 N2104 N2105 27.4 0.015 0.000 0.000 0 0
C1199 N2106 N2107 62.1 0.015 0.000 0.000 0 0
C1200 N2107 N2108 84.1 0.015 0.509 0.000 0 0
C1201 N2109 N2110 116.0 0.015 0.000 0.000 0 0
C1202 N2111 N2112 63.6 0.015 0.000 0.000 0 0
C1203 N2113 N2114 86.1 0.015 0.000 0.000 0 0
C1204 N2115 N2116 234.7 0.015 0.100 0.000 0 0
C1205 N2117 N2115 43.3 0.015 0.100 0.000 0 0
C1206 N2117 N2118 48.0 0.015 0.000 0.000 0 0
C1207 N2119 N2120 71.3 0.015 0.000 0.000 0 0
C1208 N2120 N2121 51.1 0.015 1.842 0.000 0 0
C1209 N2122 N2123 234.2 0.015 0.000 0.000 0 0
C1210 N2122 N2124 47.1 0.015 0.000 0.000 0 0
C1211 N2124 N1804 100.9 0.015 0.000 0.000 0 0
C1212 N1807 N2125 102.1 0.015 0.904 0.000 0 0
C1213 N2125 N2126 42.1 0.015 1.007 0.000 0 0
C1214 N2126 N1808 110.5 0.015 0.415 0.000 0 0
C1215 N2127 N1955 16.6 0.015 0.000 1.086 0 0
C1216 N2128 N1954 16.3 0.015 0.000 0.348 0 0
C1217 N2129 N1802 13.5 0.015 0.127 0.000 0 0
C1218 N1800 N2129 12.7 0.015 0.000 0.000 0 0
C1219 N2130 N2131 318.6 0.015 0.000 0.000 0 0
C1220 N2130 N2132 428.9 0.015 2.331 0.000 0 0
C1221 N2133 N2134 374.3 0.03 0.000 0.000 0 0
C1222 N2135 N2136 28.1 0.03 0.000 0.000 0 0
C1223 N2137 N2138 213.6 0.015 0.000 0.000 0 0
C1224 N2139 N2140 362.2 0.015 0.000 0.000 0 0
C1225 N2141 N2142 47.2 0.03 0.000 0.000 0 0
C1226 N2143 N2144 41.5 0.03 0.000 0.000 0 0
C1227 N2145 N2146 65.3 0.03 0.000 0.000 0 0
C1228 N2147 N2148 367.6 0.03 0.000 0.000 0 0
C1229 N2131 N2149 196.1 0.015 1.104 0.000 0 0
C1230 N2150 N2151 206.1 0.03 0.000 0.000 0 0
C1231 N2152 N2153 111.0 0.03 0.000 0.000 0 0
C1232 N2154 N2155 296.6 0.03 0.000 0.000 0 0
C1233 N2156 N2157 99.6 0.015 0.000 0.000 0 0
C1234 N2158 N2010 146.8 0.015 0.003 0.630 0 0
C1235 N1970 N2158 24.6 0.015 0.000 0.000 0 0
C1236 N1974 N2159 381.6 0.015 1.363 0.000 0 0
C1237 N2023 N2160 130.7 0.015 0.351 0.000 0 0
C1238 N2161 N2045 38.6 0.015 0.062 0.000 0 0
C1239 N2044 N2162 29.3 0.015 0.000 0.139 0 0
C1240 N2163 N2119 34.4 0.015 0.000 0.000 0 0
C1241 N2118 N2164 39.3 0.015 0.325 0.000 0 0
C1242 N2091 N2165 60.8 0.015 0.033 0.000 0 0
C1243 N2095 N2166 94.2 0.015 0.000 0.000 0 0
C1244 N2132 N2167 564.1 0.015 4.565 0.000 0 0
C1245 N2168 N2169 576.3 0.015 0.000 0.000 0 0
C1246 N2170 N2171 237.8 0.015 0.000 0.780 0 0
C1247 N2172 N2173 194.9 0.015 0.360 0.000 0 0
C1248 N2174 N2175 60.1 0.015 0.000 0.000 0 0
C1249 N2176 N2177 295.0 0.015 0.000 0.000 0 0
C1250 N2178 N2179 120.5 0.015 0.000 0.000 0 0
C1251 N2179 N2180 195.0 0.015 0.090 0.000 0 0
C1252 N2181 N2182 106.3 0.015 0.000 0.000 0 0
C1253 N2183 N2184 312.6 0.015 0.000 0.000 0 0
C1254 N2185 N2186 185.7 0.015 0.000 0.000 0 0
C1255 N2187 N2188 186.8 0.015 0.000 0.000 0 0
C1256 N2189 N2190 187.1 0.015 0.000 0.000 0 0
C1257 N2191 N2192 227.8 0.015 0.000 0.000 0 0
C1258 N2193 N2194 343.3 0.015 0.000 0.000 0 0
C1259 N2195 N2196 177.4 0.015 0.000 0.000 0 0
C1260 N2197 N2198 178.0 0.015 0.000 0.000 0 0
C1261 N2199 N2200 176.0 0.015 0.000 0.000 0 0
C1262 N2201 N2202 175.0 0.015 0.000 0.000 0 0
C1263 N2203 N2204 172.9 0.015 0.000 0.000 0 0
C1264 N2205 N2206 169.2 0.015 0.000 0.000 0 0
C1265 N2207 N2208 477.2 0.015 0.000 0.000 0 0
C1266 N2208 N2209 572.6 0.015 0.000 0.000 0 0
C1267 N2210 N2211 406.1 0.015 0.000 0.000 0 0
C1268 N2211 N2212 85.1 0.015 0.997 0.000 0 0
C1269 N2213 N2214 295.2 0.015 0.000 0.000 0 0
C1270 N2215 N2216 97.2 0.015 0.000 0.000 0 0
C1271 N2217 N2218 210.0 0.015 0.000 0.000 0 0
C1272 N2219 N2220 400.2 0.015 0.000 0.000 0 0
C1273 N2221 N2222 239.1 0.015 0.000 0.000 0 0
C1274 N2223 N2222 267.2 0.015 0.000 0.405 0 0
C1275 N2224 N2225 229.2 0.015 0.000 0.000 0 0
C1276 N2220 N2226 439.9 0.015 0.000 0.000 0 0
C1277 N2227 N2228 120.6 0.015 0.000 0.000 0 0
C1278 N2229 N2230 63.2 0.015 0.000 0.000 0 0
C1279 N2231 N2232 385.8 0.015 0.000 0.000 0 0
C1280 N2233 N2234 132.3 0.015 0.000 0.000 0 0
C1281 N2235 N2236 151.8 0.015 0.000 0.000 0 0
C1282 N2237 N2238 81.6 0.015 0.000 0.000 0 0
C1283 N2239 N2240 105.6 0.015 0.000 0.000 0 0
C1284 N2241 N2242 77.0 0.015 0.000 0.000 0 0
C1285 N2243 N2244 48.6 0.015 0.000 0.000 0 0
C1286 N2245 N2246 45.4 0.015 0.000 0.000 0 0
C1287 N2236 N2247 171.1 0.015 0.144 0.000 0 0
C1288 N2248 N2249 191.1 0.015 0.000 0.000 0 0
C1289 N2250 N2251 195.0 0.015 0.000 0.000 0 0
C1290 N2252 N2253 55.4 0.015 0.000 0.000 0 0
C1291 N2254 N2255 177.1 0.015 0.000 0.000 0 0
C1292 N2256 N2257 121.9 0.015 0.000 0.000 0 0
C1293 N2251 N2258 106.5 0.015 0.295 0.000 0 0
C1294 N2259 N2260 59.9 0.015 0.000 0.000 0 0
C1295 N2261 N2260 102.8 0.015 0.000 0.000 0 0
C1296 N2262 N2263 57.4 0.015 0.000 0.000 0 0
C1297 N2264 N2265 387.4 0.015 0.000 0.000 0 0
C1298 N2266 N2267 404.9 0.015 0.000 0.000 0 0
C1299 N2268 N2269 103.9 0.015 0.000 0.000 0 0
C1300 N2270 N2271 117.7 0.015 0.000 0.000 0 0
C1301 N2272 N2273 122.4 0.015 0.000 0.000 0 0
C1302 N2274 N2275 93.3 0.015 0.000 0.000 0 0
C1303 N2276 N2277 271.7 0.015 0.000 0.000 0 0
C1304 N2278 N2279 154.7 0.015 0.000 0.000 0 0
C1305 N2280 N2281 485.2 0.015 0.000 0.088 0 0
C1306 N2282 N2283 55.9 0.015 0.000 0.000 0 0
C1307 N2284 N2285 285.6 0.015 0.000 0.000 0 0
C1308 N1964 N2286 337.5 0.015 0.009 0.000 0 0
C1309 N2287 N2161 24.9 0.015 0.000 0.000 0 0
C1310 N2285 N2288 521.2 0.015 0.698 0.000 0 0
C1311 N2289 N2290 123.3 0.015 0.000 0.000 0 0
C1312 N1962 N2291 169.1 0.015 0.000 0.000 0 0
C1313 N2292 N2293 129.8 0.015 0.000 0.000 0 0
C1314 N2294 N2295 168.3 0.015 0.000 0.000 0 0
C1315 N2296 N2297 131.0 0.015 0.000 0.000 0 0
C1316 N2298 N2299 119.2 0.015 0.000 0.000 0 0
C1317 N2300 N1961 46.5 0.015 0.000 0.158 0 0
C1318 N2301 N2302 289.2 0.015 0.000 0.000 0 0
C1319 N2303 N2304 68.2 0.015 0.000 0.000 0 0
C1320 N2305 N2304 93.8 0.015 0.000 0.110 0 0
C1321 N2306 N2307 99.2 0.015 0.000 0.000 0 0
C1322 N2308 N2309 23.8 0.015 0.000 0.000 0 0
C1323 N2310 N2311 8.8 0.015 0.000 0.000 0 0
C1324 N2312 N2313 73.1 0.015 0.000 0.000 0 0
C1325 N2314 N2315 126.1 0.015 0.000 0.000 0 0
C1326 N2316 N2317 43.8 0.015 0.000 0.000 0 0
C1327 N2318 N2319 55.1 0.015 0.000 0.000 0 0
C1328 N2320 N2321 73.0 0.015 0.000 0.000 0 0
C1329 N2322 N2323 27.1 0.015 3.374 0.000 0 0
C1330 N2324 N2325 21.2 0.015 4.845 0.000 0 0
C1331 N2326 N2327 132.1 0.015 0.000 0.457 0 0
C1332 N2328 N2329 77.3 0.015 0.000 0.000 0 0
C1333 N2330 N2172 52.8 0.015 0.000 0.000 0 0
C1334 N2225 N2331 38.3 0.015 0.025 0.000 0 0
C1335 N2232 N2332 106.8 0.015 0.000 0.000 0 0
C1336 N2226 N2333 102.6 0.015 0.000 0.000 0 0
C1337 N2281 N2162 23.7 0.015 0.000 0.000 0 0
C1338 N2266 N2334 386.4 0.015 1.464 0.000 0 0
C1339 N2335 N2336 117.5 0.015 0.232 0.000 0 0
C1340 N2337 N2338 93.3 0.015 0.000 0.000 0 0
C1341 N2339 N2340 10.6 0.015 0.000 0.000 0 0
C1342 N2341 N2342 97.4 0.015 0.000 0.000 0 0
C1343 N2343 N2344 101.6 0.015 0.000 0.000 0 0
C1344 N2345 N2346 194.2 0.015 0.000 0.000 0 0
C1345 N2347 N2348 319.5 0.015 0.000 0.000 0 0
C1346 N2348 N2349 259.6 0.015 0.500 0.000 0 0
C1347 N2350 N2351 257.3 0.015 0.000 0.000 0 0
C1348 N2352 N2353 192.7 0.015 0.000 0.000 0 0
C1349 N2354 N2355 151.7 0.015 0.000 0.000 0 0
C1350 N2356 N2357 158.6 0.015 0.000 0.000 0 0
C1351 N2358 N2359 19.2 0.015 0.000 0.000 0 0
C1352 N2360 N2324 467.7 0.015 0.000 0.000 0 0
C1353 N2361 N2322 132.0 0.015 0.000 0.000 0 0
C1354 N2362 N2363 521.5 0.015 0.000 0.000 0 0
C1355 N2364 N2365 91.0 0.015 0.000 0.000 0 0
C1356 N2366 N2367 98.7 0.015 0.000 0.000 0 0
C1357 N2368 N2369 109.7 0.015 0.000 0.031 0 0
C1358 N2369 N2370 209.8 0.015 0.089 0.000 0 0
C1359 N2371 N2372 98.7 0.015 0.000 0.000 0 0
C1360 N2373 N2374 391.1 0.015 0.000 0.000 0 0
C1361 N2375 N2376 133.1 0.015 0.000 0.000 0 0
C1362 N2377 N2378 177.6 0.015 0.000 0.000 0 0
C1363 N2379 N2380 97.9 0.015 0.000 0.323 0 0
C1364 N2381 N2382 92.8 0.015 0.000 0.000 0 0
C1365 N2383 N2380 108.5 0.015 0.000 0.006 0 0
C1366 N2380 N2384 39.3 0.015 0.000 0.000 0 0
C1367 N2385 N2386 39.3 0.015 0.000 0.000 0 0
C1368 N2387 N2388 22.8 0.015 0.000 0.479 0 0
C1369 N2389 N2390 24.0 0.015 0.000 0.000 0 0
C1370 N2388 N2391 185.4 0.015 0.442 0.000 0 0
C1371 N2392 N2393 155.2 0.015 0.000 0.000 0 0
C1372 N2394 N2395 44.8 0.015 0.000 0.000 0 0
C1373 N2388 N2396 185.9 0.015 0.000 0.000 0 0
C1374 N2397 N2398 61.6 0.015 0.000 0.000 0 0
C1375 N2399 N2400 92.2 0.015 0.000 0.000 0 0
C1376 N2401 N2402 99.0 0.015 0.000 0.000 0 0
C1377 N2403 N2404 31.2 0.015 0.000 0.000 0 0
C1378 N2404 N2405 241.8 0.015 0.000 0.000 0 0
C1379 N2406 N2407 25.4 0.015 0.000 0.000 0 0
C1380 N2408 N2409 36.6 0.015 0.000 0.004 0 0
C1381 N2410 N2409 34.0 0.015 0.000 0.000 0 0
C1382 N2411 N2412 63.2 0.015 0.000 0.000 0 0
C1383 N2413 N2414 64.5 0.015 0.000 0.000 0 0
C1384 N2415 N2416 296.2 0.015 0.420 0.000 0 0
C1385 N2417 N2418 229.6 0.015 0.000 0.212 0 0
C1386 N2419 N2420 84.7 0.015 0.662 0.000 0 0
C1387 N2421 N2422 87.6 0.015 0.000 0.000 0 0
C1388 N2423 N2424 83.8 0.015 0.000 0.000 0 0
C1389 N2425 N2426 257.2 0.015 0.000 0.000 0 0
C1390 N2427 N2428 166.4 0.015 0.983 0.000 0 0
C1391 N2429 N2430 175.6 0.015 0.000 0.000 0 0
C1392 N2431 N2432 119.4 0.015 0.000 0.000 0 0
C1393 N2433 N2434 120.9 0.015 0.000 0.000 0 0
C1394 N2435 N2436 31.4 0.015 0.322 0.269 0 0
C1395 N2436 N2435 31.5 0.015 0.000 0.000 0 0
C1396 N2437 N2438 71.4 0.015 0.000 0.000 0 0
C1397 N2432 N2439 60.3 0.015 0.000 0.000 0 0
C1398 N2440 N2441 98.1 0.015 0.000 0.000 0 0
C1399 N2442 N2443 355.1 0.015 1.521 0.000 0 0
C1400 N2444 N2445 145.3 0.015 0.000 0.000 0 0
C1401 N2446 N2447 77.8 0.015 0.000 0.000 0 0
C1402 N2414 N2448 185.6 0.015 0.605 0.000 0 0
C1403 N2449 N2450 394.9 0.015 0.000 0.000 0 0
C1404 N2451 N2452 184.6 0.015 0.000 0.000 0 0
C1405 N2453 N2454 184.6 0.015 0.000 0.000 0 0
C1406 N2455 N2456 119.2 0.015 0.000 0.000 0 0
C1407 N2457 N2458 118.9 0.015 0.000 0.000 0 0
C1408 N2459 N2460 52.0 0.015 0.000 0.000 0 0
C1409 N2461 N2462 120.4 0.015 0.000 0.000 0 0
C1410 N2463 N2464 145.2 0.015 0.000 0.000 0 0
C1411 N2465 N2466 175.4 0.015 0.087 0.000 0 0
C1412 N2467 N2468 91.6 0.015 0.000 0.000 0 0
C1413 N2469 N2470 148.7 0.015 0.000 0.000 0 0
C1414 N2471 N2472 64.2 0.015 0.000 0.000 0 0
C1415 N2473 N2474 106.6 0.015 0.205 0.450 0 0
C1416 N2474 N2475 153.4 0.015 0.000 0.000 0 0
C1417 N2476 N2477 162.7 0.015 0.000 0.000 0 0
C1418 N2478 N2479 183.3 0.015 0.000 0.000 0 0
C1419 N2480 N2481 183.3 0.015 0.000 0.000 0 0
C1420 N2482 N2483 23.6 0.015 0.000 0.000 0 0
C1421 N2484 N2485 60.4 0.015 0.000 0.000 0 0
C1422 N2486 N2487 364.3 0.015 0.000 0.000 0 0
C1423 N2488 N2489 128.1 0.015 0.000 0.000 0 0
C1424 N2490 N2491 165.3 0.015 0.000 0.000 0 0
C1425 N2492 N2493 95.5 0.015 0.000 0.000 0 0
C1426 N2494 N2495 159.5 0.015 0.000 0.000 0 0
C1427 N2496 N2497 110.3 0.015 0.000 0.000 0 0
C1428 N2498 N2499 60.5 0.015 0.000 0.000 0 0
C1429 N2500 N2501 78.0 0.015 0.000 0.000 0 0
C1430 N2502 N2503 65.5 0.015 0.000 0.000 0 0
C1431 N2504 N2505 67.1 0.015 0.000 0.000 0 0
C1432 N2506 N2507 128.9 0.015 0.000 0.000 0 0
C1433 N2508 N2509 38.1 0.015 0.000 0.000 0 0
C1434 N2510 N2511 62.4 0.015 0.000 0.000 0 0
C1435 N2512 N2513 519.6 0.015 0.000 0.000 0 0
C1436 N2514 N2515 143.7 0.015 0.000 0.000 0 0
C1437 N2516 N2517 144.3 0.015 0.000 0.000 0 0
C1438 N2518 N2519 259.5 0.015 0.439 0.000 0 0
C1439 N2519 N2520 74.8 0.015 0.512 0.000 0 0
C1440 N2521 N2522 158.1 0.015 0.000 0.000 0 0
C1441 N2523 N2524 141.9 0.015 0.000 0.000 0 0
C1442 N2525 N2526 42.0 0.015 0.000 0.000 0 0
C1443 N2527 N2528 111.1 0.015 0.000 0.000 0 0
C1444 N2529 N2530 44.8 0.015 0.130 0.000 0 0
C1445 N2475 N2528 41.8 0.015 0.674 0.204 0 0
C1446 N2531 N2532 111.7 0.015 0.000 0.000 0 0
C1447 N2533 N2534 113.1 0.015 0.000 0.000 0 0
C1448 N2534 N2532 39.7 0.015 0.067 0.000 0 0
C1449 N2535 N2536 134.0 0.015 0.000 0.000 0 0
C1450 N2536 N2537 53.5 0.015 0.000 0.000 0 0
C1451 N2538 N2539 153.9 0.015 0.000 0.000 0 0
C1452 N2540 N2541 109.9 0.015 0.000 0.000 0 0
C1453 N2541 N2542 94.1 0.015 0.535 0.000 0 0
C1454 N2543 N2544 39.6 0.015 0.000 0.000 0 0
C1455 N2544 N2545 93.0 0.015 0.186 0.000 0 0
C1456 N2546 N2547 404.1 0.015 0.000 0.000 0 0
C1457 N2548 N2549 129.4 0.015 0.000 0.000 0 0
C1458 N2550 N2551 65.6 0.015 0.000 0.000 0 0
C1459 N2551 N2552 192.3 0.015 0.000 0.000 0 0
C1460 N2553 N2554 230.1 0.015 0.000 0.000 0 0
C1461 N2555 N2556 226.0 0.015 1.964 0.000 0 0
C1462 N2557 N2558 152.6 0.015 0.000 0.000 0 0
C1463 N2559 N2560 32.6 0.015 0.000 0.000 0 0
C1464 N2561 N2562 159.6 0.015 0.000 0.000 0 0
C1465 N2562 N2563 96.3 0.015 0.655 0.000 0 0
C1466 N2564 N2335 48.5 0.015 0.000 0.000 0 0
C1467 N2365 N2565 49.0 0.015 0.331 0.000 0 0
C1468 N2566 N2567 93.8 0.015 1.274 0.000 0 0
C1469 N2393 N2568 80.0 0.015 0.493 0.000 0 0
C1470 N2380 N2569 42.5 0.015 0.000 0.000 0 0
C1471 N2570 N2381 55.2 0.015 0.000 0.000 0 0
C1472 N2380 N2571 57.0 0.015 0.323 0.000 0 0
C1473 N2572 N2415 202.1 0.015 0.000 0.000 0 0
C1474 N2573 N2574 82.5 0.015 0.224 0.000 0 0
C1475 N2575 N2576 116.7 0.015 0.000 0.000 0 0
C1476 N2418 N2573 40.0 0.015 0.000 0.000 0 0
C1477 N2576 N2419 38.7 0.015 0.791 0.000 0 0
C1478 N2422 N2577 57.1 0.015 0.000 0.000 0 0
C1479 N2578 N2427 76.0 0.015 0.000 0.000 0 0
C1480 N2579 N2580 239.5 0.015 0.000 0.662 0 0
C1481 N2581 N2465 43.4 0.015 0.000 0.000 0 0
C1482 N2582 N2444 91.3 0.015 0.000 0.001 0 0
C1483 N2470 N2471 44.9 0.015 0.000 0.000 0 0
C1484 N2583 N2473 63.0 0.015 0.000 0.000 0 0
C1485 N2475 N2584 111.6 0.015 0.169 0.000 0 0
C1486 N2505 N2585 25.8 0.015 0.780 0.000 0 0
C1487 N2586 N2502 39.8 0.015 0.000 0.029 0 0
C1488 N2580 N2442 84.1 0.015 0.000 0.000 0 0
C1489 N2528 N2529 107.2 0.015 0.537 0.000 0 0
C1490 N2532 N2587 103.5 0.015 0.519 0.000 0 0
C1491 N2367 N2566 33.7 0.015 0.000 0.000 0 0
C1492 N2460 N2588 46.5 0.015 0.238 0.000 0 0
C1493 N2589 N2590 210.1 0.015 0.000 0.000 0 0
C1494 N2591 N2592 198.3 0.015 0.000 0.000 0 0
C1495 N2593 N2594 348.5 0.015 0.000 0.000 0 0
C1496 N2595 N2596 94.5 0.015 0.000 0.000 0 0
C1497 N2597 N2598 360.1 0.015 0.000 0.000 0 0
C1498 N2599 N2600 95.6 0.015 0.326 0.000 0 0
C1499 N2601 N2599 198.3 0.015 0.000 0.000 0 0
C1500 N2602 N2171 186.9 0.015 0.000 0.000 0 0
C1501 N2603 N2604 250.1 0.015 0.000 0.000 0 0
C1502 N2605 N2606 52.9 0.015 0.000 0.000 0 0
C1503 N2607 N2608 40.0 0.015 0.000 0.000 0 0
C1504 N2609 N2610 184.3 0.015 0.000 0.000 0 0
C1505 N2611 N2612 191.1 0.015 0.000 0.000 0 0
C1506 N2613 N2614 162.2 0.015 0.000 0.000 0 0
C1507 N2615 N2616 123.8 0.015 0.000 0.000 0 0
C1508 N2617 N2618 100.0 0.015 0.000 0.000 0 0
C1509 N2619 N2620 97.8 0.015 0.000 0.000 0 0
C1510 N2621 N2610 342.0 0.015 0.000 1.087 0 0
C1511 N2622 N2623 75.2 0.015 0.000 0.000 0 0
C1512 N2624 N2625 133.4 0.015 0.000 0.000 0 0
C1513 N2626 N2627 209.3 0.015 0.410 0.000 0 0
C1514 N2628 N2629 173.7 0.015 0.000 0.000 0 0
C1515 N2630 N2631 168.2 0.015 0.000 0.000 0 0
C1516 N2632 N2633 307.9 0.015 0.000 0.000 0 0
C1517 N2634 N2635 294.0 0.015 0.000 0.000 0 0
C1518 N2636 N2637 76.3 0.015 0.000 0.000 0 0
C1519 N2638 N2639 46.9 0.015 0.000 0.000 0 0
C1520 N2640 N2641 209.2 0.015 0.000 0.000 0 0
C1521 N2642 N2643 128.0 0.015 0.000 0.000 0 0
C1522 N2644 N2645 130.1 0.015 0.000 0.000 0 0
C1523 N2646 N2647 136.2 0.015 0.000 0.000 0 0
C1524 N2648 N2649 137.4 0.015 0.000 0.000 0 0
C1525 N2650 N2651 88.2 0.015 0.000 0.000 0 0
C1526 N2652 N2653 154.0 0.015 0.000 0.000 0 0
C1527 N2654 N2655 158.2 0.015 0.000 0.000 0 0
C1528 N2656 N2657 300.4 0.015 0.000 0.000 0 0
C1529 N2658 N2659 289.4 0.015 0.000 0.000 0 0
C1530 N2660 N2661 111.5 0.015 0.000 0.000 0 0
C1531 N2662 N2663 157.6 0.015 0.000 0.000 0 0
C1532 N2664 N2665 157.5 0.015 0.000 0.295 0 0
C1533 N2666 N2667 903.8 0.015 0.000 0.000 0 0
C1534 N2668 N2669 33.1 0.015 0.000 0.000 0 0
C1535 N2670 N2671 111.4 0.015 0.000 0.000 0 0
C1536 N2672 N2673 158.5 0.015 0.000 0.000 0 0
C1537 N2674 N2675 139.0 0.015 0.000 0.000 0 0
C1538 N2676 N2677 196.0 0.015 0.000 0.000 0 0
C1539 N2678 N2679 50.1 0.015 0.000 0.000 0 0
C1540 N2680 N2681 101.3 0.015 0.000 0.000 0 0
C1541 N2682 N2683 16.7 0.015 0.000 0.000 0 0
C1542 N2684 N2685 63.1 0.015 0.000 0.000 0 0
C1543 N2686 N2687 61.3 0.015 0.000 0.000 0 0
C1544 N2688 N2689 177.7 0.015 0.000 0.000 0 0
C1545 N2690 N2691 57.8 0.015 0.000 0.000 0 0
C1546 N2692 N2693 71.0 0.015 0.000 0.000 0 0
C1547 N2694 N2695 296.8 0.03 0.000 0.000 0 0
C1548 N2696 N2676 60.6 0.015 0.000 0.047 0 0
C1549 N2697 N2698 104.2 0.015 0.000 0.000 0 0
C1550 N2699 N2700 193.9 0.015 0.000 0.000 0 0
C1551 N2701 N2702 182.3 0.015 0.000 0.000 0 0
C1552 N2703 N2704 134.7 0.015 0.000 0.000 0 0
C1553 N2705 N2706 115.0 0.015 0.000 0.000 0 0
C1554 N2707 N2708 98.8 0.015 0.000 0.000 0 0
C1555 N2708 N2709 78.1 0.015 0.137 0.000 0 0
C1556 N2710 N2711 109.3 0.015 0.000 0.000 0 0
C1557 N2712 N2713 135.0 0.015 0.520 0.000 0 0
C1558 N2714 N2712 70.9 0.03 0.000 0.000 0 0
C1559 N2715 N2716 30.8 0.015 0.000 0.000 0 0
C1560 N2717 N2718 220.5 0.015 0.000 0.000 0 0
C1561 N2719 N2720 136.4 0.015 0.000 0.000 0 0
C1562 N2721 N2722 249.9 0.015 0.000 0.000 0 0
C1563 N2718 N2723 119.7 0.03 0.264 0.000 0 0
C1564 N2724 N2725 20.9 0.015 0.000 0.000 0 0
C1565 N2726 N2727 80.6 0.015 0.000 0.000 0 0
C1566 N2727 N2728 57.4 0.015 0.000 0.000 0 0
C1567 N2728 N2729 65.3 0.015 0.000 0.000 0 0
C1568 N2730 N2731 157.7 0.03 0.000 0.000 0 0
C1569 N2732 N2733 79.4 0.03 0.000 0.000 0 0
C1570 N2733 N2734 69.7 0.015 0.000 0.000 0 0
C1571 N2735 N2736 104.2 0.015 0.000 0.997 0 0
C1572 N2736 N2737 222.8 0.015 0.997 0.000 0 0
C1573 N2735 N2738 214.1 0.015 0.047 0.000 0 0
C1574 N2738 N2739 106.9 0.015 0.000 0.000 0 0
C1575 N2740 N2741 63.1 0.015 0.000 0.000 0 0
C1576 N2741 N2736 432.2 0.015 0.571 0.000 0 0
C1577 N2742 N2743 220.4 0.03 0.000 0.000 0 0
C1578 N2744 N2745 29.7 0.015 0.000 0.000 0 0
C1579 N2746 N2747 249.3 0.015 0.774 0.000 0 0
C1580 N2626 N2748 132.8 0.015 0.000 0.057 0 0
C1581 N2748 N2631 45.7 0.015 0.000 0.057 0 0
C1582 N2749 N2750 301.5 0.015 0.000 0.000 0 0
C1583 N2751 N2640 193.8 0.015 0.000 0.000 0 0
C1584 N2752 N2753 39.0 0.015 0.000 0.000 0 0
C1585 N2753 N2754 22.1 0.03 0.000 0.000 0 0
C1586 N2755 N2756 147.6 0.015 0.000 0.000 0 0
C1587 N2756 N2665 117.3 0.015 0.429 0.000 0 0
C1588 N2757 N2758 17.0 0.015 0.707 0.000 0 0
C1589 N2758 N2759 316.0 0.015 0.134 1.438 0 0
C1590 N2760 N2761 40.7 0.015 0.000 0.000 0 0
C1591 N2761 N2762 16.9 0.015 0.000 0.365 0 0
C1592 N2763 N2764 341.5 0.015 0.000 0.000 0 0
C1593 N2765 N2766 42.6 0.03 0.000 0.000 0 0
C1594 N2767 N2768 86.6 0.015 0.000 0.000 0 0
C1595 N2769 N2770 334.7 0.015 0.019 0.000 0 0
C1596 N2771 N2772 411.6 0.015 0.000 0.000 0 0
C1597 N2773 N2774 96.8 0.03 0.358 0.000 0 0
C1598 N2775 N2776 85.4 0.03 0.356 0.000 0 0
C1599 N2777 N2775 152.5 0.015 0.000 0.000 0 0
C1600 N2778 N2779 41.6 0.03 0.000 0.000 0 0
C1601 N2780 N2781 165.7 0.03 0.000 0.000 0 0
C1602 N2782 N2783 70.6 0.03 0.000 0.000 0 0
C1603 N2784 N2785 55.4 0.03 0.000 0.000 0 0
C1604 N2786 N2787 89.9 0.015 0.000 0.000 0 0
C1605 N2788 N2789 136.1 0.015 0.000 0.000 0 0
C1606 N2790 N2791 215.4 0.015 0.000 0.000 0 0
C1607 N2791 N2792 207.6 0.015 0.606 0.000 0 0
C1608 N2793 N2794 218.1 0.015 0.000 0.000 0 0
C1609 N2793 N2795 156.4 0.015 0.750 0.000 0 0
C1610 N2796 N2797 246.3 0.015 0.000 0.000 0 0
C1611 N2798 N2799 40.7 0.015 0.000 0.000 0 0
C1612 N2799 N2800 37.4 0.015 0.030 0.000 0 0
C1613 N2801 N2802 258.6 0.015 1.393 0.000 0 0
C1614 N2803 N2804 24.3 0.015 0.000 0.000 0 0
C1615 N2805 N2806 26.2 0.015 0.000 0.000 0 0
C1616 N2807 N2808 43.9 0.015 0.000 0.000 0 0
C1617 N2808 N2809 41.5 0.015 0.023 0.000 0 0
C1618 N2810 N2811 23.4 0.015 0.640 0.000 0 0
C1619 N2812 N2810 24.1 0.015 0.000 0.000 0 0
C1620 N2813 N2814 98.4 0.03 0.000 0.000 0 0
C1621 N2814 N2815 53.9 0.015 0.974 0.000 0 0
C1622 N2816 N2817 75.1 0.03 0.000 0.000 0 0
C1623 N2818 N2819 39.3 0.015 0.000 0.000 0 0
C1624 N2820 N2821 81.2 0.015 0.000 0.000 0 0
C1625 N2822 N2823 96.6 0.03 0.000 0.000 0 0
C1626 N2801 N2794 183.8 0.015 0.000 0.000 0 0
C1627 N2824 N2825 178.2 0.015 0.000 0.000 0 0
C1628 N2825 N2826 75.2 0.015 2.087 0.000 0 0
C1629 N2826 N2827 177.6 0.015 2.087 0.000 0 0
C1630 N2260 N2828 153.7 0.015 0.652 0.000 0 0
C1631 N2327 N2824 74.4 0.015 0.000 0.373 0 0
C1632 N2829 N2830 167.8 0.015 0.000 0.000 0 0
C1633 N2830 N2831 58.1 0.015 0.168 0.000 0 0
C1634 N2832 N2833 289.8 0.015 0.000 0.000 0 0
C1635 N2834 N2835 286.7 0.015 1.714 0.000 0 0
C1636 N2836 N2837 186.6 0.015 0.000 0.058 0 0
C1637 N2838 N2839 177.7 0.03 0.000 0.000 0 0
C1638 N2840 N2841 173.2 0.03 0.000 0.000 0 0
C1639 N2842 N2843 276.5 0.015 0.000 0.000 0 0
C1640 N2844 N2845 167.4 0.03 0.000 0.000 0 0
C1641 N2846 N2847 164.9 0.03 0.000 0.000 0 0
C1642 N2846 N2848 82.0 0.03 0.000 0.000 0 0
C1643 N2849 N2850 65.5 0.03 0.000 0.000 0 0
C1644 N2851 N2837 189.5 0.015 0.000 0.000 0 0
C1645 N2852 N2853 28.2 0.03 0.037 0.000 0 0
C1646 N2854 N2852 29.1 0.03 0.000 0.000 0 0
C1647 N2855 N2856 68.3 0.015 0.411 0.000 0 0
C1648 N2842 N2834 143.3 0.015 1.268 0.000 0 0
C1649 N2857 N2858 195.5 0.03 0.000 0.000 0 0
C1650 N2859 N2860 222.1 0.03 0.000 0.000 0 0
C1651 N2861 N2789 69.0 0.03 0.000 0.000 0 0
C1652 N2862 N2863 36.9 0.03 0.000 0.000 0 0
C1653 N2863 N2864 102.4 0.03 0.307 0.000 0 0
C1654 N2865 N2866 308.1 0.03 0.000 0.000 0 0
C1655 N2867 N2868 395.3 0.015 0.000 0.000 0 0
C1656 N2869 N2870 38.6 0.015 0.000 0.000 0 0
C1657 N2871 N2872 38.3 0.03 0.000 0.000 0 0
C1658 N2873 N2874 58.4 0.015 0.000 0.000 0 0
C1659 N2875 N2876 51.7 0.015 0.000 0.000 0 0
C1660 N2877 N2878 258.9 0.03 0.000 0.000 0 0
C1661 N2832 N2879 48.3 0.015 0.292 0.000 0 0
C1662 N2880 N2881 757.4 0.015 0.000 0.000 0 0
C1663 N2882 N2883 794.8 0.015 0.000 0.000 0 0
C1664 N2884 N2885 149.9 0.03 0.000 0.000 0 0
C1665 N2885 N2886 53.3 0.03 0.000 0.000 0 0
C1666 N2887 N2888 131.4 0.015 0.000 0.000 0 0
C1667 N2889 N2890 119.2 0.015 0.501 0.000 0 0
C1668 N2889 N2891 43.5 0.015 0.000 0.000 0 0
C1669 N2892 N2893 357.4 0.015 0.000 0.000 0 0
C1670 N2894 N2895 383.6 0.015 0.000 0.000 0 0
C1671 N2896 N2897 74.9 0.015 0.000 0.000 0 0
C1672 N2897 N2898 38.2 0.015 0.006 0.000 0 0
C1673 N2899 N2900 35.0 0.015 0.000 0.000 0 0
C1674 N2901 N2902 337.3 0.015 0.000 0.000 0 0
C1675 N2903 N2904 108.5 0.03 0.000 0.000 0 0
C1676 N2905 N2906 108.8 0.03 0.000 0.000 0 0
C1677 N2907 N2908 335.8 0.03 0.000 0.000 0 0
C1678 N2909 N2910 103.3 0.03 0.000 0.000 0 0
C1679 N2911 N2912 24.0 0.03 0.000 0.000 0 0
C1680 N2913 N2914 34.5 0.03 0.000 0.000 0 0
C1681 N2915 N2916 55.7 0.03 0.000 0.000 0 0
C1682 N2916 N2917 79.3 0.015 0.182 0.000 0 0
C1683 N2918 N2919 57.5 0.015 0.000 0.000 0 0
C1684 N2920 N2921 277.6 0.015 0.000 0.000 0 0
C1685 N2922 N2923 159.6 0.03 0.000 0.000 0 0
C1686 N2924 N2925 167.4 0.03 0.000 0.000 0 0
C1687 N2926 N2927 557.4 0.015 0.000 0.000 0 0
C1688 N2928 N2929 556.1 0.03 0.000 0.000 0 0
C1689 N2930 N2931 117.0 0.015 0.000 0.000 0 0
C1690 N2932 N2933 328.0 0.015 0.000 0.000 0 0
C1691 N2934 N2935 6.7 0.015 0.000 0.000 0 0
C1692 N2936 N2937 101.4 0.015 0.000 0.000 0 0
C1693 N2938 N2939 106.4 0.015 0.000 0.000 0 0
C1694 N2940 N2941 204.2 0.03 0.000 0.000 0 0
C1695 N2942 N2943 177.1 0.03 0.000 0.000 0 0
C1696 N2944 N2945 179.6 0.015 0.000 0.000 0 0
C1697 N2946 N2947 175.4 0.015 0.000 0.000 0 0
C1698 N2948 N2949 81.8 0.03 0.245 0.000 0 0
C1699 N2950 N2948 83.0 0.03 0.176 0.000 0 0
C1700 N2951 N2952 175.4 0.03 0.000 0.000 0 0
C1701 N2953 N2954 83.9 0.03 0.000 0.000 0 0
C1702 N2955 N2956 82.4 0.03 0.000 0.000 0 0
C1703 N2952 N2957 543.0 0.03 0.000 0.000 0 0
C1704 N2958 N2959 97.5 0.015 0.000 0.000 0 0
C1705 N2960 N2961 96.0 0.015 0.000 0.000 0 0
C1706 N2962 N2963 36.4 0.03 0.000 0.000 0 0
C1707 N2964 N2965 166.0 0.015 0.000 0.000 0 0
C1708 N2964 N2966 89.3 0.03 0.130 0.000 0 0
C1709 N2967 N2968 92.1 0.03 0.000 0.000 0 0
C1710 N2969 N2970 21.1 0.015 0.000 0.000 0 0
C1711 N2971 N2972 105.9 0.03 0.000 0.000 0 0
C1712 N2973 N2974 111.7 0.03 0.000 0.000 0 0
C1713 N2975 N2976 118.4 0.03 0.000 0.000 0 0
C1714 N2977 N2978 67.9 0.03 0.459 0.000 0 0
C1715 N2979 N2980 157.8 0.03 0.000 0.000 0 0
C1716 N2980 N2981 59.8 0.015 0.000 0.000 0 0
C1717 N2982 N2981 157.2 0.015 0.000 0.000 0 0
C1718 N2983 N2978 206.0 0.015 0.000 0.133 0 0
C1719 N2984 N2985 72.8 0.03 0.000 0.000 0 0
C1720 N2986 N2987 416.7 0.015 0.000 0.000 0 0
C1721 N2988 N2989 235.6 0.015 0.000 0.000 0 0
C1722 N2990 N2991 73.6 0.03 0.000 0.000 0 0
C1723 N2992 N2993 69.8 0.015 0.000 0.000 0 0
C1724 N2994 N2995 70.8 0.03 0.000 0.000 0 0
C1725 N2996 N2997 72.8 0.015 0.000 0.000 0 0
C1726 N2998 N2999 76.0 0.03 0.000 0.000 0 0
C1727 N3000 N3001 90.9 0.03 0.007 0.000 0 0
C1728 N3002 N3000 74.1 0.03 0.000 0.000 0 0
C1729 N3003 N3004 73.7 0.03 0.000 0.000 0 0
C1730 N3005 N3006 300.0 0.015 0.000 0.000 0 0
C1731 N3006 N3007 256.1 0.03 0.294 0.000 0 0
C1732 N3008 N2855 68.2 0.015 0.000 0.000 0 0
C1733 N3009 N3010 193.2 0.015 0.748 0.000 0 0
C1734 N3011 N3012 22.9 0.03 0.000 0.000 0 0
C1735 N3012 N3013 40.6 0.03 0.022 0.000 0 0
C1736 N3014 N3015 87.5 0.03 0.819 0.000 0 0
C1737 N3016 N3017 70.6 0.03 0.085 0.000 0 0
C1738 N3017 N3018 104.2 0.03 0.047 0.000 0 0
C1739 N3018 N3016 34.0 0.03 0.132 0.000 0 0
C1740 N3019 N3014 42.0 0.03 0.279 0.000 0 0
C1741 N2787 N3020 62.2 0.03 0.000 0.000 0 0
C1742 N3020 N3019 41.6 0.015 0.000 0.000 0 0
C1743 N3021 N2769 66.3 0.015 0.000 0.000 0 0
C1744 N3022 N2773 38.2 0.015 0.000 0.000 0 0
C1745 N3023 N2832 181.8 0.015 0.000 0.000 0 0
C1746 N3024 N2940 48.4 0.03 0.000 0.000 0 0
C1747 N3025 N3026 263.5 0.015 0.000 0.039 0 0
C1748 N3027 N3028 74.0 0.015 0.000 0.000 0 0
C1749 N3029 N3030 177.9 0.015 0.000 0.000 0 0
C1750 N3031 N3032 40.2 0.015 0.000 0.000 0 0
C1751 N3033 N3034 128.7 0.015 0.000 0.000 0 0
C1752 N3035 N3036 177.2 0.015 0.000 0.000 0 0
C1753 N3037 N3038 138.4 0.015 0.000 0.000 0 0
C1754 N3039 N3040 48.5 0.015 0.000 0.000 0 0
C1755 N3041 N3042 168.9 0.015 0.000 0.000 0 0
C1756 N3042 N2518 695.1 0.015 0.393 0.000 0 0
C1757 N3043 N3044 117.8 0.015 0.000 0.000 0 0
C1758 N3045 N3046 295.7 0.015 0.000 0.000 0 0
C1759 N3047 N3048 250.9 0.015 0.000 0.000 0 0
C1760 N3049 N3050 256.3 0.015 0.000 0.000 0 0
C1761 N3051 N3052 29.6 0.015 0.000 0.000 0 0
C1762 N3052 N3053 90.0 0.015 0.000 0.000 0 0
C1763 N3054 N3055 471.9 0.015 0.000 0.000 0 0
C1764 N3056 N3057 194.3 0.015 0.000 0.000 0 0
C1765 N3057 N3058 50.1 0.015 0.108 0.000 0 0
C1766 N3059 N3060 403.8 0.015 0.000 0.000 0 0
C1767 N3060 N3061 90.7 0.03 0.000 0.000 0 0
C1768 N3060 N3062 134.6 0.015 3.220 0.000 0 0
C1769 N3063 N3064 325.6 0.015 0.000 0.000 0 0
C1770 N3065 N3066 281.4 0.015 0.000 0.000 0 0
C1771 N3067 N3068 78.2 0.015 0.000 0.000 0 0
C1772 N3069 N3070 138.2 0.015 0.000 0.000 0 0
C1773 N3071 N3072 297.8 0.015 0.000 0.000 0 0
C1774 N3073 N3074 109.6 0.015 0.273 0.000 0 0
C1775 N3074 N3073 183.6 0.015 0.273 0.000 0 0
C1776 N3075 N3076 38.3 0.015 0.000 0.000 0 0
C1777 N3077 N3078 318.6 0.015 0.886 0.000 0 0
C1778 N3079 N3080 56.4 0.015 0.000 0.000 0 0
C1779 N3081 N3082 327.8 0.015 0.000 0.000 0 0
C1780 N3083 N3084 101.2 0.03 0.000 0.000 0 0
C1781 N3084 N3085 304.7 0.015 0.717 0.000 0 0
C1782 N3086 N3087 472.3 0.015 0.000 0.000 0 0
C1783 N3088 N3089 120.3 0.015 0.000 0.000 0 0
C1784 N3090 N3091 134.6 0.015 0.000 0.000 0 0
C1785 N3092 N3093 38.9 0.015 0.000 0.000 0 0
C1786 N3093 N3094 91.7 0.015 1.893 0.000 0 0
C1787 N3095 N3096 239.3 0.015 0.000 0.000 0 0
C1788 N3097 N3098 353.8 0.015 0.000 0.000 0 0
C1789 N3099 N3100 146.3 0.015 0.000 0.000 0 0
C1790 N3101 N3102 286.6 0.015 0.000 0.000 0 0
C1791 N3102 N3103 126.1 0.015 0.000 0.000 0 0
C1792 N3104 N3105 344.6 0.015 0.000 0.000 0 0
C1793 N3106 N3107 183.9 0.015 0.000 0.000 0 0
C1794 N3108 N3109 334.1 0.015 0.000 0.000 0 0
C1795 N3110 N3111 958.4 0.015 0.000 1.748 0 0
C1796 N3112 N3113 228.8 0.015 0.000 0.000 0 0
C1797 N3114 N3115 840.0 0.015 0.000 0.000 0 0
C1798 N3116 N3117 618.9 0.015 0.000 0.359 0 0
C1799 N3118 N3119 692.4 0.015 0.000 0.000 0 0
C1800 N3120 N3121 131.7 0.015 0.000 0.000 0 0
C1801 N3122 N3123 135.3 0.015 0.000 0.000 0 0
C1802 N3124 N3117 685.7 0.015 0.000 0.000 0 0
C1803 N3125 N0 195.4 0.015 0.000 0.000 0 0
C1804 N3126 N3127 52.0 0.03 0.000 0.000 0 0
C1805 N3128 N3129 228.0 0.015 3.484 0.000 0 0
C1806 N3130 N3128 91.9 0.015 0.000 0.000 0 0
C1807 N3129 N3131 89.5 0.015 0.023 0.000 0 0
C1808 N3132 N3133 162.1 0.015 0.000 0.000 0 0
C1809 N3026 N3077 346.4 0.015 0.000 0.000 0 0
C1810 N3134 N3135 99.9 0.015 0.000 0.000 0 0
C1811 N3136 N3137 340.3 0.015 0.000 0.000 0 0
C1812 N3138 N3139 379.1 0.015 0.000 0.000 0 0
C1813 N3140 N3141 487.9 0.015 0.000 0.000 0 0
C1814 N3142 N3143 91.7 0.015 0.000 0.000 0 0
C1815 N3144 N3145 704.4 0.015 0.000 0.000 0 0
C1816 N3146 N3114 140.8 0.015 0.000 0.130 0 0
C1817 N3147 N3148 246.3 0.015 0.000 0.000 0 0
C1818 N3149 N3150 1651.4 0.015 0.000 0.000 0 0
C1819 N3151 N3152 85.7 0.015 0.000 0.000 0 0
C1820 N3153 N3154 237.5 0.015 0.000 0.000 0 0
C1821 N95 N3155 8.7 0.015 0.839 0.000 0 0
C1822 N3156 N3157 393.8 0.015 0.000 0.000 0 0
C1823 N3158 N3159 79.4 0.015 0.000 0.000 0 0
C1824 N3160 N3161 487.7 0.015 0.000 0.000 0 0
C1825 N3162 N3163 74.4 0.015 0.000 1.099 0 0
C1826 N3164 N3165 97.8 0.015 0.000 0.000 0 0
C1827 N3166 N3167 43.4 0.015 0.000 0.000 0 0
C1828 N3168 N3169 69.0 0.03 0.000 0.000 0 0
C1829 N3170 N3171 58.6 0.015 0.000 0.000 0 0
C1830 N3172 N3173 249.9 0.015 0.222 0.000 0 0
C1831 N3174 N3172 198.5 0.015 0.000 0.000 0 0
C1832 N3175 N3176 358.1 0.015 0.000 0.000 0 0
C1833 N3177 N3178 90.3 0.015 1.842 0.000 0 0
C1834 N3179 N3180 144.9 0.015 0.000 0.000 0 0
C1835 N3181 N3182 320.2 0.015 0.000 0.000 0 0
C1836 N3183 N3184 122.2 0.015 0.000 0.000 0 0
C1837 N3185 N3186 89.6 0.015 0.000 0.000 0 0
C1838 N3187 N3188 666.3 0.015 0.000 0.000 0 0
C1839 N3189 N3190 262.9 0.015 0.000 0.000 0 0
C1840 N3191 N3192 134.4 0.015 0.000 0.000 0 0
C1841 N3193 N3194 138.0 0.015 0.000 0.000 0 0
C1842 N3195 N3196 136.0 0.015 0.000 0.000 0 0
C1843 N3197 N3198 105.9 0.015 0.000 0.000 0 0
C1844 N3199 N3200 5.4 0.015 0.000 0.000 0 0
C1845 N3201 N3202 216.8 0.015 0.000 0.000 0 0
C1846 N3203 N3204 103.4 0.015 0.000 0.000 0 0
C1847 N3205 N3206 83.3 0.015 0.000 0.000 0 0
C1848 N3207 N3208 200.5 0.015 0.000 0.000 0 0
C1849 N3209 N3210 304.1 0.015 0.000 0.000 0 0
C1850 N3211 N3212 203.8 0.015 0.000 0.000 0 0
C1851 N3213 N3214 312.4 0.015 0.000 0.000 0 0
C1852 N3215 N3216 109.2 0.015 0.000 0.000 0 0
C1853 N3217 N3218 54.9 0.015 0.000 0.000 0 0
C1854 N3219 N3220 110.4 0.015 0.000 0.000 0 0
C1855 N3221 N3222 97.5 0.015 0.000 0.000 0 0
C1856 N3223 N3224 95.9 0.015 0.000 0.000 0 0
C1857 N3225 N3226 361.7 0.015 0.000 0.000 0 0
C1858 N3227 N3228 156.3 0.015 0.000 0.000 0 0
C1859 N3229 N3230 272.2 0.015 0.000 0.000 0 0
C1860 N3177 N3231 400.3 0.015 0.000 0.000 0 0
C1861 N3232 N3233 496.7 0.015 0.000 0.000 0 0
C1862 N3234 N3235 265.4 0.015 0.000 0.000 0 0
C1863 N3236 N3237 567.6 0.03 0.000 0.000 0 0
C1864 N3238 N3239 382.8 0.03 0.000 0.000 0 0
C1865 N3240 N3241 170.7 0.015 0.000 0.000 0 0
C1866 N3241 N3242 265.1 0.015 0.948 0.000 0 0
C1867 N3243 N3244 200.3 0.015 0.000 0.000 0 0
C1868 N3245 N3163 68.5 0.015 0.000 0.000 0 0
C1869 N3246 N3247 120.0 0.03 0.000 0.000 0 0
C1870 N3248 N3249 1970.8 0.015 0.000 0.000 0 0
C1871 N3250 N3251 454.4 0.015 0.000 0.000 0 0
C1872 N3252 N3253 289.9 0.015 0.000 0.000 0 0
C1873 N3254 N3255 214.4 0.015 0.000 0.000 0 0
C1874 N3256 N3257 143.1 0.015 0.000 0.000 0 0
C1875 N3258 N3257 150.2 0.015 0.000 1.242 0 0
C1876 N3259 N3258 150.1 0.015 0.000 0.000 0 0
C1877 N3260 N3261 379.8 0.015 0.000 0.000 0 0
C1878 N3262 N3263 521.8 0.015 0.000 0.000 0 0
C1879 N3264 N3265 208.8 0.015 0.000 0.000 0 0
C1880 N3266 N3267 944.1 0.015 0.000 0.000 0 0
C1881 N3268 N3269 1215.3 0.015 0.000 0.000 0 0
C1882 N3270 N3271 222.5 0.03 0.000 0.000 0 0
C1883 N3272 N3273 302.0 0.03 0.000 0.000 0 0
C1884 N3274 N3275 81.2 0.03 0.000 0.000 0 0
C1885 N3276 N3277 112.8 0.015 0.000 0.000 0 0
C1886 N3278 N3279 472.6 0.015 0.051 0.000 0 0
C1887 N3280 N3281 255.5 0.015 0.000 0.000 0 0
C1888 N3282 N3283 28.1 0.03 0.000 0.000 0 0
C1889 N3284 N3285 122.9 0.015 0.084 0.000 0 0
C1890 N3286 N3287 49.3 0.015 0.000 0.000 0 0
C1891 N3288 N3289 52.1 0.015 0.000 0.000 0 0
C1892 N3290 N3284 47.8 0.015 0.084 0.000 0 0
C1893 N3287 N3290 85.3 0.015 0.000 0.000 0 0
C1894 N3291 N3292 79.9 0.015 0.000 0.000 0 0
C1895 N3293 N3294 254.7 0.015 0.000 0.000 0 0
C1896 N3295 N3296 126.3 0.015 0.119 0.000 0 0
C1897 N3296 N3295 138.3 0.015 0.119 0.000 0 0
C1898 N3297 N3298 52.3 0.015 0.000 0.000 0 0
C1899 N3299 N3278 330.0 0.03 0.000 0.000 0 0
C1900 N3300 N3301 387.0 0.015 0.000 0.000 0 0
C1901 N3302 N3303 352.5 0.015 0.000 0.000 0 0
C1902 N3304 N3305 718.6 0.015 0.000 0.000 0 0
C1903 N3306 N3307 728.5 0.015 0.000 0.000 0 0
C1904 N3308 N3309 537.1 0.015 0.000 0.000 0 0
C1905 N3310 N3311 618.2 0.015 0.000 0.000 0 0
C1906 N3312 N3313 20.6 0.015 0.000 0.000 0 0
C1907 N3314 N3315 49.2 0.015 0.000 0.000 0 0
C1908 N3316 N3317 315.9 0.015 0.000 0.000 0 0
C1909 N3318 N3319 313.9 0.015 0.000 0.000 0 0
C1910 N3320 N3321 167.7 0.015 0.000 0.000 0 0
C1911 N3322 N3323 644.1 0.015 0.000 0.000 0 0
C1912 N3324 N3325 152.7 0.015 0.000 0.000 0 0
C1913 N3326 N3327 88.7 0.015 0.000 0.000 0 0
C1914 N3328 N3329 574.2 0.015 0.000 0.000 0 0
C1915 N3330 N3331 284.2 0.015 0.000 0.000 0 0
C1916 N3329 N3332 266.3 0.015 1.288 0.000 0 0
C1917 N3333 N3334 278.4 0.015 0.000 0.000 0 0
C1918 N3329 N3335 174.4 0.015 1.133 0.000 0 0
C1919 N3335 N3336 94.0 0.015 0.875 0.000 0 0
C1920 N3337 N3338 96.0 0.015 0.000 0.000 0 0
C1921 N3339 N3340 978.2 0.015 0.000 0.000 0 0
C1922 N3341 N3342 916.9 0.015 0.000 0.000 0 0
C1923 N3343 N3344 168.5 0.015 0.000 0.000 0 0
C1924 N3344 N3322 352.2 0.015 0.993 0.027 0 0
C1925 N3345 N3346 22.3 0.015 0.000 0.000 0 0
C1926 N3347 N3348 230.3 0.015 0.000 0.000 0 0
C1927 N3349 N3350 71.8 0.015 0.000 0.000 0 0
C1928 N3348 N3351 372.5 0.015 0.608 0.000 0 0
C1929 N3352 N3353 34.1 0.015 0.000 0.000 0 0
C1930 N3354 N3355 118.1 0.015 0.000 0.000 0 0
C1931 N3356 N3357 113.0 0.015 0.000 0.000 0 0
C1932 N3358 N3359 119.1 0.03 0.000 0.000 0 0
C1933 N3360 N3361 44.8 0.015 0.000 0.000 0 0
C1934 N3362 N3363 85.5 0.015 0.000 0.000 0 0
C1935 N3364 N3365 200.1 0.015 0.000 0.000 0 0
C1936 N3366 N3367 96.7 0.015 0.000 0.000 0 0
C1937 N3366 N3368 332.3 0.015 0.356 0.000 0 0
C1938 N3368 N3369 88.9 0.015 1.000 0.000 0 0
C1939 N3370 N3371 86.0 0.03 0.000 0.000 0 0
C1940 N3372 N3373 221.5 0.015 0.000 0.000 0 0
C1941 N3374 N3375 187.7 0.015 0.000 0.000 0 0
C1942 N3376 N3377 51.9 0.015 0.000 0.000 0 0
C1943 N3378 N3379 229.7 0.015 0.000 0.000 0 0
C1944 N3380 N3381 154.9 0.03 0.000 0.000 0 0
C1945 N3381 N3382 98.7 0.015 0.794 0.000 0 0
C1946 N3383 N3382 66.7 0.015 0.000 0.529 0 0
C1947 N3384 N3385 202.6 0.015 0.000 0.000 0 0
C1948 N3386 N3387 66.2 0.015 0.000 0.000 0 0
C1949 N3388 N3389 12.9 0.015 0.000 0.000 0 0
C1950 N3390 N3391 171.0 0.015 0.000 0.000 0 0
C1951 N3392 N3393 117.8 0.015 0.000 0.000 0 0
C1952 N3394 N3395 139.4 0.015 0.000 0.000 0 0
C1953 N3396 N3397 212.9 0.015 0.000 0.000 0 0
C1954 N3398 N3399 432.2 0.015 0.000 0.000 0 0
C1955 N3364 N3400 74.0 0.015 0.992 0.000 0 0
C1956 N3401 N3402 95.8 0.015 0.000 0.000 0 0
C1957 N3403 N3391 149.8 0.015 0.000 0.000 0 0
C1958 N3404 N3405 163.2 0.015 0.000 0.000 0 0
C1959 N3406 N3407 46.8 0.015 0.000 0.000 0 0
C1960 N3408 N3409 132.0 0.015 1.304 0.000 0 0
C1961 N3410 N3411 131.5 0.015 0.000 0.000 0 0
C1962 N3412 N3413 48.3 0.015 0.000 0.000 0 0
C1963 N3414 N3415 326.3 0.015 0.000 0.000 0 0
C1964 N3416 N3417 296.9 0.015 0.000 0.000 0 0
C1965 N3418 N3419 80.0 0.015 0.000 0.000 0 0
C1966 N3419 N3420 119.4 0.015 0.776 0.000 0 0
C1967 N3421 N3422 121.3 0.015 0.000 0.000 0 0
C1968 N3423 N3424 194.4 0.015 0.000 0.000 0 0
C1969 N3425 N3426 77.9 0.015 0.000 0.000 0 0
C1970 N3427 N3426 45.3 0.015 0.000 0.598 0 0
C1971 N3428 N3429 143.8 0.015 0.000 0.000 0 0
C1972 N3429 N3430 202.2 0.015 0.905 0.000 0 0
C1973 N3431 N3432 39.2 0.015 0.000 0.000 0 0
C1974 N3433 N3434 169.8 0.015 0.000 0.000 0 0
C1975 N3435 N3436 89.8 0.015 0.219 0.000 0 0
C1976 N3437 N3438 47.5 0.015 0.000 0.000 0 0
C1977 N3439 N3440 509.7 0.015 0.000 0.000 0 0
C1978 N3441 N3442 131.1 0.015 0.000 0.000 0 0
C1979 N3443 N3444 134.3 0.015 0.000 0.000 0 0
C1980 N3445 N3446 39.5 0.015 0.000 0.000 0 0
C1981 N3446 N3447 108.4 0.015 0.765 0.000 0 0
C1982 N3448 N3449 196.5 0.015 0.000 0.000 0 0
C1983 N3450 N3451 208.6 0.015 0.000 0.000 0 0
C1984 N3452 N3453 25.9 0.015 0.000 0.000 0 0
C1985 N3454 N3455 182.5 0.015 0.000 0.000 0 0
C1986 N3455 N3456 104.2 0.015 1.405 0.000 0 0
C1987 N3457 N3458 106.5 0.015 0.000 1.254 0 0
C1988 N3459 N3460 85.2 0.015 0.000 0.000 0 0
C1989 N3460 N3461 19.0 0.015 0.000 0.000 0 0
C1990 N3462 N3463 104.9 0.015 0.000 0.000 0 0
C1991 N3464 N3465 104.1 0.015 0.000 0.000 0 0
C1992 N3466 N3467 105.7 0.015 0.000 0.000 0 0
C1993 N3468 N3469 88.0 0.015 0.000 0.000 0 0
C1994 N3470 N3471 116.4 0.015 0.000 0.000 0 0
C1995 N3472 N3458 213.9 0.015 0.000 0.000 0 0
C1996 N3473 N3474 1579.1 0.015 0.000 0.000 0 0
C1997 N3475 N3476 1610.2 0.015 0.000 0.000 0 0
C1998 N3477 N3478 308.8 0.015 0.000 0.000 0 0
C1999 N3479 N3480 172.9 0.015 0.000 0.000 0 0
C2000 N3481 N3482 154.9 0.015 0.000 0.000 0 0
C2001 N3483 N3484 185.4 0.015 0.000 0.000 0 0
C2002 N3485 N3486 370.6 0.015 0.000 0.000 0 0
C2003 N3487 N3488 114.8 0.015 0.000 0.000 0 0
C2004 N3489 N3490 433.4 0.015 0.000 0.000 0 0
C2005 N3491 N3492 168.6 0.015 0.000 0.000 0 0
C2006 N3493 N3494 50.8 0.015 0.000 0.000 0 0
C2007 N3495 N3496 87.1 0.015 0.000 0.000 0 0
C2008 N3486 N3497 390.1 0.015 0.099 0.000 0 0
C2009 N3498 N3499 43.9 0.015 0.000 0.000 0 0
C2010 N3500 N3501 286.9 0.015 0.000 0.000 0 0
C2011 N3502 N3503 527.2 0.015 0.000 0.000 0 0
C2012 N3504 N3505 181.6 0.015 0.000 0.000 0 0
C2013 N3506 N3507 329.7 0.015 0.000 0.000 0 0
C2014 N3507 N3508 344.2 0.015 0.225 0.000 0 0
C2015 N3509 N3510 194.5 0.015 0.000 0.000 0 0
C2016 N3511 N3512 68.1 0.015 0.000 0.000 0 0
C2017 N3513 N3514 205.4 0.015 0.000 0.000 0 0
C2018 N3515 N3516 303.4 0.015 0.000 0.000 0 0
C2019 N3517 N3518 470.4 0.015 0.000 0.000 0 0
C2020 N3519 N3520 48.3 0.015 0.000 0.000 0 0
C2021 N3521 N3522 186.3 0.015 0.081 0.000 0 0
C2022 N3523 N3524 348.1 0.015 0.000 0.000 0 0
C2023 N3525 N3526 575.8 0.015 0.000 0.000 0 0
C2024 N3527 N3528 168.3 0.015 0.000 0.000 0 0
C2025 N3485 N3529 95.8 0.015 0.622 0.000 0 0
C2026 N3434 N3435 61.7 0.015 0.000 0.000 0 0
C2027 N3530 N3531 272.3 0.015 0.000 0.000 0 0
C2028 N3531 N3532 648.9 0.015 0.613 0.233 0 0
C2029 N3533 N3534 54.2 0.015 0.000 0.000 0 0
C2030 N3535 N3532 60.8 0.015 0.000 0.000 0 0
C2031 N3536 N3537 117.1 0.015 0.000 0.000 0 0
C2032 N3538 N3539 52.6 0.015 0.000 0.000 0 0
C2033 N3540 N3541 97.7 0.015 0.000 0.000 0 0
C2034 N3542 N3543 132.0 0.015 0.000 0.000 0 0
C2035 N3544 N3545 29.6 0.015 0.000 0.000 0 0
C2036 N3546 N3547 133.7 0.015 0.000 0.000 0 0
C2037 N3548 N3549 110.8 0.015 0.000 0.000 0 0
C2038 N3550 N3551 69.9 0.015 0.000 0.000 0 0
C2039 N3552 N3553 59.6 0.015 0.000 0.000 0 0
C2040 N3554 N3555 200.3 0.015 0.000 0.000 0 0
C2041 N3556 N3557 457.3 0.015 0.000 0.330 0 0
C2042 N3557 N3558 241.7 0.015 0.000 0.000 0 0
C2043 N3559 N3560 36.5 0.015 0.000 0.000 0 0
C2044 N3561 N3562 71.5 0.015 0.000 0.000 0 0
C2045 N3563 N3564 124.4 0.015 0.000 0.000 0 0
C2046 N3565 N3566 92.1 0.015 0.000 0.000 0 0
C2047 N3567 N3568 68.6 0.015 0.000 0.000 0 0
C2048 N3500 N3569 1394.0 0.015 0.587 0.000 0 0
C2049 N3570 N3571 109.6 0.015 0.000 0.000 0 0
C2050 N3572 N3573 77.6 0.015 0.000 0.000 0 0
C2051 N3574 N3575 215.5 0.015 0.000 0.000 0 0
C2052 N3576 N3577 50.4 0.015 0.000 0.000 0 0
C2053 N3502 N3578 1362.0 0.015 1.915 0.000 0 0
C2054 N3579 N3580 116.6 0.015 0.000 0.000 0 0
C2055 N3580 N3581 138.0 0.015 0.671 0.000 0 0
C2056 N3582 N3583 15.3 0.015 0.000 0.000 0 0
C2057 N3584 N3585 12.0 0.015 0.000 0.000 0 0
C2058 N3586 N3587 11.9 0.015 0.000 0.000 0 0
C2059 N3588 N3589 17.1 0.015 0.000 0.000 0 0
C2060 N3590 N3591 93.0 0.015 0.000 0.000 0 0
C2061 N3592 N3593 158.3 0.015 0.000 0.000 0 0
C2062 N3593 N3594 126.3 0.015 0.742 0.000 0 0
C2063 N3595 N3596 95.8 0.015 0.000 0.000 0 0
C2064 N3597 N3598 69.9 0.015 0.000 0.000 0 0
C2065 N3599 N3600 30.5 0.015 0.000 0.000 0 0
C2066 N3601 N3602 226.9 0.015 0.000 0.000 0 0
C2067 N3602 N3603 270.2 0.015 0.000 0.000 0 0
C2068 N3604 N3605 119.3 0.015 0.000 0.000 0 0
C2069 N3605 N3606 300.2 0.015 1.382 0.000 0 0
C2070 N3606 N3607 331.1 0.015 1.464 0.000 0 0
C2071 N3608 N3609 66.2 0.015 0.000 0.000 0 0
C2072 N3610 N3611 59.9 0.015 0.000 0.000 0 0
C2073 N3612 N3613 273.9 0.015 0.000 0.000 0 0
C2074 N3614 N3615 152.8 0.015 0.000 0.000 0 0
C2075 N3616 N3617 132.4 0.015 0.000 0.000 0 0
C2076 N3618 N3619 135.0 0.015 0.000 0.000 0 0
C2077 N3618 N3620 153.9 0.015 0.064 0.000 0 0
C2078 N3621 N3622 159.0 0.015 0.000 0.000 0 0
C2079 N3623 N3624 121.5 0.015 0.000 0.000 0 0
C2080 N3624 N3625 64.6 0.015 1.912 0.000 0 0
C2081 N3626 N3627 7.1 0.015 0.000 0.000 0 0
C2082 N3628 N3629 55.3 0.015 0.000 0.000 0 0
C2083 N3630 N3631 228.2 0.015 0.000 0.000 0 0
C2084 N3631 N3632 424.9 0.015 0.213 0.000 0 0
C2085 N3633 N3634 123.0 0.015 0.000 0.000 0 0
C2086 N3635 N3636 124.0 0.015 0.000 0.000 0 0
C2087 N3635 N3637 84.6 0.015 0.077 0.000 0 0
C2088 N3638 N3639 103.0 0.015 0.000 0.000 0 0
C2089 N3640 N3641 66.4 0.015 0.000 0.000 0 0
C2090 N3641 N3642 104.5 0.015 0.369 0.000 0 0
C2091 N3643 N3644 153.8 0.015 0.000 0.000 0 0
C2092 N3645 N3646 107.4 0.015 0.000 0.000 0 0
C2093 N3643 N3647 276.8 0.015 0.000 0.000 0 0
C2094 N3648 N3649 188.9 0.015 0.000 0.000 0 0
C2095 N3650 N3651 152.0 0.015 0.000 0.345 0 0
C2096 N3652 N3653 263.5 0.015 0.000 0.000 0 0
C2097 N3653 N3654 314.3 0.015 0.113 0.000 0 0
C2098 N3655 N3656 284.7 0.015 0.000 0.000 0 0
C2099 N3657 N3658 52.8 0.015 0.000 0.000 0 0
C2100 N3659 N3660 183.9 0.015 0.000 0.000 0 0
C2101 N3661 N3662 123.4 0.015 0.000 0.000 0 0
C2102 N3663 N3664 57.9 0.015 0.000 0.000 0 0
C2103 N3665 N3666 53.4 0.015 0.000 0.000 0 0
C2104 N3667 N3668 101.0 0.015 0.000 0.000 0 0
C2105 N3669 N3670 99.1 0.015 0.000 0.000 0 0
C2106 N3671 N3672 80.5 0.015 0.000 0.000 0 0
C2107 N3673 N3674 80.8 0.015 0.000 0.000 0 0
C2108 N3675 N3676 79.7 0.015 0.015 0.000 0 0
C2109 N3675 N3677 78.8 0.015 0.000 0.000 0 0
C2110 N3678 N3679 73.3 0.015 0.172 0.000 0 0
C2111 N3678 N3680 72.3 0.015 0.000 0.000 0 0
C2112 N3681 N3682 62.5 0.015 0.000 0.000 0 0
C2113 N3683 N3684 62.7 0.015 0.000 0.000 0 0
C2114 N3685 N3686 57.1 0.015 0.000 0.000 0 0
C2115 N3685 N3687 56.6 0.015 0.340 0.000 0 0
C2116 N3688 N3689 44.2 0.015 0.000 0.000 0 0
C2117 N3688 N3690 42.4 0.015 0.382 0.000 0 0
C2118 N3691 N3692 77.1 0.015 0.000 0.000 0 0
C2119 N3693 N3694 66.3 0.015 0.000 0.000 0 0
C2120 N3695 N3696 69.8 0.015 0.000 0.000 0 0
C2121 N3696 N3697 66.2 0.015 0.319 0.000 0 0
C2122 N3698 N3699 86.9 0.015 0.000 0.000 0 0
C2123 N3700 N3701 86.2 0.015 0.000 0.000 0 0
C2124 N3702 N3703 47.8 0.015 0.000 0.000 0 0
C2125 N3702 N3704 49.5 0.015 0.299 0.000 0 0
C2126 N3705 N3706 72.1 0.015 0.000 0.000 0 0
C2127 N3707 N3706 65.7 0.015 0.000 0.315 0 0
C2128 N3708 N3709 54.6 0.015 0.646 0.086 0 0
C2129 N3709 N3708 54.2 0.015 0.000 0.000 0 0
C2130 N3710 N3711 99.5 0.015 0.000 0.000 0 0
C2131 N3712 N3713 120.3 0.015 0.000 0.000 0 0
C2132 N3714 N3715 118.5 0.015 0.000 0.000 0 0
C2133 N3714 N3716 195.1 0.015 0.033 0.000 0 0
C2134 N3717 N3718 50.3 0.015 0.000 0.000 0 0
C2135 N3719 N3720 95.0 0.015 0.000 0.000 0 0
C2136 N3721 N3722 243.0 0.015 0.000 0.000 0 0
C2137 N3723 N3724 219.2 0.015 0.000 0.000 0 0
C2138 N3724 N3725 203.4 0.015 0.480 0.000 0 0
C2139 N3726 N3727 214.5 0.015 0.000 0.000 0 0
C2140 N3728 N3651 260.2 0.015 0.000 0.000 0 0
C2141 N3521 N3729 213.1 0.015 0.000 0.000 0 0
C2142 N3730 N3731 115.2 0.015 0.000 0.000 0 0
C2143 N3732 N3733 507.6 0.015 0.000 0.000 0 0
C2144 N3734 N3735 388.1 0.015 0.000 0.000 0 0
C2145 N3736 N3737 73.3 0.015 0.000 0.000 0 0
C2146 N3738 N3739 39.7 0.015 1.336 0.000 0 0
C2147 N3740 N3741 252.9 0.015 0.000 0.000 0 0
C2148 N3742 N3743 31.6 0.015 0.000 0.000 0 0
C2149 N3744 N3745 298.3 0.015 0.000 0.000 0 0
C2150 N3746 N3747 240.4 0.015 0.000 0.000 0 0
C2151 N3748 N3749 240.7 0.015 0.000 0.000 0 0
C2152 N3750 N3751 128.2 0.015 0.000 0.000 0 0
C2153 N3752 N3753 134.6 0.015 0.000 0.000 0 0
C2154 N3754 N3755 119.1 0.015 0.000 0.000 0 0
C2155 N3756 N3757 87.6 0.015 0.000 0.000 0 0
C2156 N3758 N3759 120.6 0.015 0.000 0.000 0 0
C2157 N3760 N3761 121.0 0.015 0.000 0.000 0 0
C2158 N3762 N3763 123.1 0.015 0.000 0.000 0 0
C2159 N3764 N3765 123.4 0.015 0.000 0.000 0 0
C2160 N3766 N3767 282.7 0.015 0.000 0.000 0 0
C2161 N3768 N3769 85.9 0.015 0.000 0.000 0 0
C2162 N3770 N3771 79.8 0.015 0.000 0.000 0 0
C2163 N3772 N3773 400.4 0.015 0.000 0.000 0 0
C2164 N3774 N3775 329.7 0.015 0.000 0.000 0 0
C2165 N3775 N3776 99.5 0.015 0.871 0.000 0 0
C2166 N3777 N3778 101.4 0.015 0.000 0.000 0 0
C2167 N3779 N3780 121.1 0.03 0.000 0.000 0 0
C2168 N3781 N3782 134.7 0.03 0.000 0.000 0 0
C2169 N3783 N3784 143.2 0.03 0.000 0.000 0 0
C2170 N3785 N3786 139.8 0.03 0.000 0.000 0 0
C2171 N3787 N3788 126.5 0.03 0.000 0.000 0 0
C2172 N3789 N3790 199.1 0.03 0.000 0.000 0 0
C2173 N3791 N3792 224.7 0.03 0.000 0.000 0 0
C2174 N3778 N3793 109.3 0.015 0.001 0.427 0 0
C2175 N3794 N3795 533.5 0.015 0.000 0.000 0 0
C2176 N3796 N3793 439.2 0.015 0.000 0.000 0 0
C2177 N3797 N3798 199.2 0.015 0.000 0.000 0 0
C2178 N3798 N3799 91.3 0.015 0.492 0.000 0 0
C2179 N3799 N3800 84.2 0.015 1.037 0.000 0 0
C2180 N3801 N3802 111.1 0.015 0.000 0.000 0 0
C2181 N3803 N3804 90.9 0.015 0.000 0.000 0 0
C2182 N3805 N3806 252.8 0.03 0.000 0.000 0 0
C2183 N3807 N3808 49.6 0.03 0.000 0.000 0 0
C2184 N3809 N3810 184.5 0.015 0.000 0.000 0 0
C2185 N3811 N3812 175.9 0.03 0.000 0.000 0 0
C2186 N3813 N3814 161.7 0.015 0.000 0.000 0 0
C2187 N3815 N3816 153.4 0.015 0.000 0.000 0 0
C2188 N3817 N3818 33.0 0.015 0.000 0.000 0 0
C2189 N3819 N3820 50.0 0.015 0.000 0.000 0 0
C2190 N3821 N3822 347.5 0.015 0.000 0.000 0 0
C2191 N3823 N3824 111.9 0.015 0.000 0.000 0 0
C2192 N3825 N3822 210.3 0.015 0.000 0.924 0 0
C2193 N3826 N3827 111.8 0.015 0.000 0.000 0 0
C2194 N3828 N3829 111.9 0.015 0.000 0.000 0 0
C2195 N3830 N3831 111.3 0.015 0.000 0.000 0 0
C2196 N3832 N3833 326.7 0.015 0.000 0.000 0 0
C2197 N3834 N3835 107.4 0.03 0.000 0.000 0 0
C2198 N3836 N3837 87.1 0.03 0.000 0.000 0 0
C2199 N3838 N3839 161.3 0.015 0.000 0.000 0 0
C2200 N3824 N3840 91.9 0.015 0.760 0.000 0 0
C2201 N3841 N3842 64.9 0.015 0.000 0.000 0 0
C2202 N3842 N3843 80.4 0.015 0.003 0.000 0 0
C2203 N3844 N3845 63.9 0.015 0.000 0.000 0 0
C2204 N3846 N3847 62.5 0.015 0.000 0.000 0 0
C2205 N3848 N3849 135.9 0.015 0.000 0.000 0 0
C2206 N3850 N3851 152.3 0.015 0.000 0.000 0 0
C2207 N3852 N3853 164.2 0.015 0.000 0.000 0 0
C2208 N3854 N3855 88.0 0.015 0.000 0.000 0 0
C2209 N3855 N3856 82.3 0.015 0.189 0.000 0 0
C2210 N3857 N3858 128.4 0.015 0.000 0.000 0 0
C2211 N3859 N3860 32.2 0.015 0.000 0.000 0 0
C2212 N3861 N3862 296.8 0.015 0.000 0.000 0 0
C2213 N3863 N3864 253.7 0.015 0.000 0.000 0 0
C2214 N3865 N3866 163.9 0.015 0.000 0.000 0 0
C2215 N3867 N3868 43.1 0.03 0.000 0.000 0 0
C2216 N3869 N3870 129.0 0.03 0.000 0.000 0 0
C2217 N3871 N3872 75.9 0.03 0.000 0.000 0 0
C2218 N3873 N3874 69.2 0.015 0.000 0.000 0 0
C2219 N3875 N3876 41.6 0.03 0.000 0.000 0 0
C2220 N3877 N3878 84.8 0.015 0.000 0.000 0 0
C2221 N3870 N3879 132.0 0.015 0.226 0.000 0 0
C2222 N3880 N3881 33.3 0.03 0.000 0.000 0 0
C2223 N3882 N3883 74.0 0.03 0.000 0.000 0 0
C2224 N3884 N3885 81.4 0.03 0.663 0.000 0 0
C2225 N3886 N3887 57.6 0.03 0.000 0.000 0 0
C2226 N3888 N3889 26.6 0.03 0.000 0.000 0 0
C2227 N3890 N3891 106.8 0.03 0.000 0.000 0 0
C2228 N3892 N3891 24.8 0.015 0.000 0.103 0 0
C2229 N3893 N3894 25.4 0.015 0.000 0.000 0 0
C2230 N3894 N3895 101.5 0.015 0.308 0.000 0 0
C2231 N3893 N3896 137.8 0.015 0.010 0.000 0 0
C2232 N3897 N3898 37.3 0.015 0.000 0.000 0 0
C2233 N3899 N3898 72.7 0.03 0.000 0.082 0 0
C2234 N3896 N3900 45.0 0.015 0.078 0.000 0 0
C2235 N3901 N3902 193.9 0.015 0.000 0.000 0 0
C2236 N3903 N3904 67.4 0.015 0.000 0.000 0 0
C2237 N3905 N3906 62.0 0.015 0.000 0.000 0 0
C2238 N3907 N3908 259.6 0.015 0.000 0.000 0 0
C2239 N3909 N3910 39.5 0.015 0.000 0.000 0 0
C2240 N3911 N3912 38.7 0.015 0.000 0.000 0 0
C2241 N3913 N3914 40.5 0.015 0.000 0.000 0 0
C2242 N3915 N3916 31.1 0.015 0.000 0.000 0 0
C2243 N3910 N3917 254.9 0.015 0.244 0.000 0 0
C2244 N3918 N3919 246.1 0.015 0.000 0.000 0 0
C2245 N3920 N3921 225.8 0.015 0.000 0.000 0 0
C2246 N3922 N3923 356.8 0.015 0.000 0.000 0 0
C2247 N3924 N3925 41.6 0.015 0.000 0.000 0 0
C2248 N3926 N3927 554.7 0.015 0.000 0.000 0 0
C2249 N3928 N3929 71.0 0.015 0.000 0.000 0 0
C2250 N3930 N3931 43.0 0.015 0.000 0.000 0 0
C2251 N3932 N3933 64.3 0.015 0.000 0.000 0 0
C2252 N3934 N3935 118.9 0.015 0.000 0.000 0 0
C2253 N3936 N3937 190.0 0.015 0.000 0.000 0 0
C2254 N3938 N3939 81.8 0.015 0.000 0.000 0 0
C2255 N3940 N3941 91.9 0.015 0.000 0.000 0 0
C2256 N3942 N3943 26.5 0.015 0.000 0.000 0 0
C2257 N3944 N3945 30.6 0.03 0.000 0.000 0 0
C2258 N3946 N3947 115.0 0.015 0.000 0.000 0 0
C2259 N3948 N3949 233.4 0.015 0.000 0.000 0 0
C2260 N3950 N3951 60.7 0.015 0.000 0.000 0 0
C2261 N3952 N3953 103.8 0.015 0.000 0.000 0 0
C2262 N3954 N3955 66.2 0.015 0.000 0.000 0 0
C2263 N3956 N3957 75.4 0.015 0.000 0.000 0 0
C2264 N3958 N3959 208.4 0.015 0.000 0.000 0 0
C2265 N3960 N3961 113.0 0.015 0.000 0.000 0 0
C2266 N3962 N3963 21.2 0.015 0.000 0.000 0 0
C2267 N3964 N3965 26.9 0.015 0.000 0.000 0 0
C2268 N3966 N3967 12.8 0.015 0.000 0.000 0 0
C2269 N3968 N3969 115.1 0.015 0.000 0.000 0 0
C2270 N3970 N3971 34.6 0.015 0.000 0.000 0 0
C2271 N3972 N3973 89.6 0.015 0.000 0.000 0 0
C2272 N3974 N3975 67.0 0.03 0.000 0.000 0 0
C2273 N3976 N3977 175.2 0.03 0.000 0.000 0 0
C2274 N3978 N3979 152.8 0.015 0.000 0.000 0 0
C2275 N3980 N3981 113.2 0.015 0.000 0.000 0 0
C2276 N3982 N3981 94.1 0.015 0.000 0.094 0 0
C2277 N3983 N3984 115.8 0.015 0.000 0.000 0 0
C2278 N3985 N3981 125.8 0.015 0.000 0.607 0 0
C2279 N3979 N3986 223.1 0.015 0.128 0.000 0 0
C2280 N3987 N3988 94.5 0.015 0.000 0.000 0 0
C2281 N3989 N3990 202.3 0.015 0.000 0.000 0 0
C2282 N3991 N3992 57.1 0.015 0.000 0.000 0 0
C2283 N3993 N3994 97.2 0.015 0.000 0.000 0 0
C2284 N3995 N3996 124.3 0.015 0.000 0.000 0 0
C2285 N3986 N3997 129.1 0.015 0.894 0.000 0 0
C2286 N3997 N3408 115.3 0.015 0.566 0.000 0 0
C2287 N3998 N3999 112.2 0.015 0.000 0.000 0 0
C2288 N4000 N4001 120.2 0.015 0.000 0.000 0 0
C2289 N4002 N4003 255.5 0.015 0.000 0.000 0 0
C2290 N4004 N4005 165.2 0.015 0.000 0.000 0 0
C2291 N4006 N4007 141.5 0.015 0.000 0.000 0 0
C2292 N3961 N4008 107.0 0.015 1.402 0.090 0 0
C2293 N4008 N4009 128.4 0.015 0.000 0.000 0 0
C2294 N4009 N4010 175.0 0.015 0.000 0.000 0 0
C2295 N4011 N4012 114.2 0.015 0.000 0.000 0 0
C2296 N4013 N4014 98.3 0.015 0.000 0.000 0 0
C2297 N4015 N4016 17.9 0.015 0.000 0.000 0 0
C2298 N4017 N4018 17.5 0.015 0.000 0.000 0 0
C2299 N4019 N4020 184.7 0.015 0.061 0.000 0 0
C2300 N3864 N4021 115.4 0.015 1.032 0.000 0 0
C2301 N3879 N3884 61.4 0.03 0.560 0.000 0 0
C2302 N4022 N4019 89.3 0.015 0.000 0.000 0 0
C2303 N4023 N4024 249.2 0.03 0.000 0.000 0 0
C2304 N4025 N4026 249.4 0.03 0.000 0.000 0 0
C2305 N4027 N4028 159.3 0.03 0.000 0.000 0 0
C2306 N4028 N4029 132.2 0.03 0.000 0.000 0 0
C2307 N4029 N4030 160.2 0.03 0.000 0.000 0 0
C2308 N4031 N4032 99.6 0.03 0.000 0.000 0 0
C2309 N4032 N4033 94.6 0.03 0.697 0.000 0 0
C2310 N4034 N4035 48.7 0.03 0.000 0.000 0 0
C2311 N4036 N4037 93.5 0.03 0.000 0.000 0 0
C2312 N4038 N4039 96.2 0.015 0.000 0.000 0 0
C2313 N4040 N4041 34.0 0.015 0.000 0.000 0 0
C2314 N4042 N4043 165.8 0.03 0.000 0.000 0 0
C2315 N4044 N4045 42.6 0.015 0.000 0.000 0 0
C2316 N4045 N4046 95.1 0.015 0.335 0.000 0 0
C2317 N4043 N4047 322.0 0.03 0.730 0.000 0 0
C2318 N4048 N4049 57.4 0.03 0.000 0.000 0 0
C2319 N4050 N4051 54.2 0.03 0.000 0.000 0 0
C2320 N4052 N4053 81.8 0.015 0.000 0.000 0 0
C2321 N4054 N4055 69.3 0.03 0.000 0.000 0 0
C2322 N4056 N4057 76.0 0.03 0.000 0.000 0 0
C2323 N4047 N4058 263.8 0.03 0.730 0.000 0 0
C2324 N4059 N4060 195.9 0.03 0.000 0.000 0 0
C2325 N4061 N4062 34.0 0.03 0.000 0.000 0 0
C2326 N4063 N4064 134.1 0.03 0.000 0.000 0 0
C2327 N4065 N4066 41.4 0.03 0.000 0.000 0 0
C2328 N4067 N4068 128.3 0.03 0.000 0.000 0 0
C2329 N4069 N4070 139.2 0.03 0.000 0.000 0 0
C2330 N4070 N4068 131.7 0.03 1.230 0.000 0 0
C2331 N4071 N4072 195.7 0.015 0.000 0.000 0 0
C2332 N4073 N4074 629.1 0.015 0.000 0.000 0 0
C2333 N4075 N4076 117.5 0.015 0.000 0.000 0 0
C2334 N4077 N4078 207.8 0.015 0.000 0.000 0 0
C2335 N4079 N4080 69.8 0.03 0.000 0.000 0 0
C2336 N4081 N4082 118.3 0.015 0.000 0.000 0 0
C2337 N4083 N4084 221.9 0.015 0.000 0.000 0 0
C2338 N4085 N4086 37.9 0.03 0.000 0.000 0 0
C2339 N4087 N4088 287.7 0.03 0.000 0.336 0 0
C2340 N4089 N4090 275.4 0.015 0.000 0.000 0 0
C2341 N4091 N4092 53.0 0.015 0.000 0.000 0 0
C2342 N4093 N4094 33.4 0.03 0.000 0.000 0 0
C2343 N4090 N4095 289.9 0.03 0.782 0.000 0 0
C2344 N4096 N4097 291.1 0.015 0.000 0.131 0 0
C2345 N4098 N4099 220.3 0.03 0.000 0.000 0 0
C2346 N4100 N4101 230.0 0.015 0.000 0.000 0 0
C2347 N4102 N4103 283.9 0.015 0.000 0.000 0 0
C2348 N4104 N4105 140.2 0.015 0.000 0.000 0 0
C2349 N4106 N4107 131.3 0.015 0.000 0.000 0 0
C2350 N4108 N4109 130.2 0.015 0.000 0.000 0 0
C2351 N4110 N4111 139.3 0.015 0.000 0.000 0 0
C2352 N4112 N4113 136.3 0.015 0.000 0.000 0 0
C2353 N4114 N4115 87.8 0.015 0.000 0.000 0 0
C2354 N4116 N4117 98.3 0.03 0.000 0.000 0 0
C2355 N4118 N4119 84.7 0.015 0.000 0.000 0 0
C2356 N4120 N4121 279.2 0.015 0.000 0.000 0 0
C2357 N4122 N4123 203.8 0.015 0.000 0.000 0 0
C2358 N4124 N4125 324.1 0.015 0.000 0.000 0 0
C2359 N4126 N4127 209.0 0.015 0.000 0.000 0 0
C2360 N4128 N4129 336.5 0.015 0.000 0.000 0 0
C2361 N4130 N4131 332.0 0.015 0.658 0.000 0 0
C2362 N4132 N4133 535.1 0.015 0.000 0.000 0 0
C2363 N4134 N4135 116.8 0.03 0.741 0.000 0 0
C2364 N4136 N4137 18.0 0.03 0.000 0.000 0 0
C2365 N4138 N4139 27.4 0.03 0.000 0.000 0 0
C2366 N4140 N4141 57.2 0.015 0.000 0.000 0 0
C2367 N4142 N4143 874.3 0.015 0.000 0.000 0 0
C2368 N4144 N4145 163.8 0.03 0.000 0.000 0 0
C2369 N4146 N4147 150.1 0.03 0.000 0.000 0 0
C2370 N4148 N4149 113.2 0.03 0.000 0.000 0 0
C2371 N4145 N4150 205.5 0.015 0.000 0.000 0 0
C2372 N4151 N4152 251.6 0.015 0.000 0.000 0 0
C2373 N4153 N4154 143.1 0.03 0.000 0.170 0 0
C2374 N4154 N4155 164.0 0.015 0.445 0.000 0 0
C2375 N4156 N4157 125.7 0.03 1.636 0.000 0 0
C2376 N4158 N4159 121.2 0.03 0.000 0.000 0 0
C2377 N4160 N4161 103.7 0.03 0.000 0.000 0 0
C2378 N4162 N4163 98.5 0.03 0.000 0.000 0 0
C2379 N4164 N4165 135.6 0.015 0.000 0.000 0 0
C2380 N4165 N4166 194.7 0.03 0.000 0.000 0 0
C2381 N4166 N4167 134.9 0.03 0.000 0.000 0 0
C2382 N4168 N4169 80.5 0.015 0.000 0.000 0 0
C2383 N4170 N4171 63.6 0.03 0.000 0.000 0 0
C2384 N4172 N4173 214.1 0.015 0.000 0.000 0 0
C2385 N4174 N4175 217.6 0.015 0.000 0.000 0 0
C2386 N4175 N4176 89.0 0.015 0.000 0.000 0 0
C2387 N4177 N4178 172.0 0.015 0.000 0.000 0 0
C2388 N4128 N4179 406.4 0.03 0.570 0.000 0 0
C2389 N4179 N4180 136.7 0.03 0.686 0.000 0 0
C2390 N4181 N4182 66.7 0.015 0.000 0.000 0 0
C2391 N4183 N4184 166.7 0.015 0.000 0.000 0 0
C2392 N4185 N4186 49.9 0.015 0.000 0.000 0 0
C2393 N4186 N4187 163.6 0.03 0.000 0.000 0 0
C2394 N4188 N4189 90.9 0.015 0.000 0.000 0 0
C2395 N4189 N4190 51.4 0.03 0.000 0.000 0 0
C2396 N4189 N4134 36.7 0.03 0.741 0.000 0 0
C2397 N4191 N4192 467.6 0.03 0.000 0.000 0 0
C2398 N4193 N4194 100.7 0.03 0.000 0.000 0 0
C2399 N4194 N4195 45.5 0.03 0.000 0.000 0 0
C2400 N4196 N4097 162.0 0.015 0.000 0.000 0 0
C2401 N4097 N4197 149.2 0.015 1.274 0.000 0 0
C2402 N4198 N4199 148.1 0.03 0.000 0.000 0 0
C2403 N4199 N4200 135.6 0.03 1.151 0.000 0 0
C2404 N4201 N4202 116.7 0.015 0.541 0.000 0 0
C2405 N4203 N4201 167.7 0.03 0.000 0.000 0 0
C2406 N4204 N4205 224.1 0.03 0.000 0.000 0 0
C2407 N4206 N4207 43.7 0.015 0.000 0.000 0 0
C2408 N4084 N4088 131.0 0.015 1.134 0.000 0 0
C2409 N4208 N4209 63.6 0.03 0.000 0.000 0 0
C2410 N4210 N4211 109.8 0.03 0.000 0.000 0 0
C2411 N4211 N4212 83.1 0.03 0.000 0.000 0 0
C2412 N4213 N4214 130.1 0.015 0.000 0.000 0 0
C2413 N4214 N4215 79.9 0.015 0.055 0.000 0 0
C2414 N4216 N4067 260.4 0.03 0.000 0.000 0 0
C2415 N4217 N4218 122.1 0.015 0.000 0.000 0 0
C2416 N4218 N4219 175.4 0.03 1.199 0.000 0 0
C2417 N4220 N4206 98.2 0.015 0.000 0.000 0 0
C2418 N4221 N4222 45.5 0.03 0.000 0.000 0 0
C2419 N4222 N4223 45.6 0.03 1.172 0.000 0 0
C2420 N4224 N4225 94.6 0.015 0.000 0.169 0 0
C2421 N4226 N4227 26.6 0.03 0.000 0.000 0 0
C2422 N4228 N4229 175.2 0.015 0.000 0.000 0 0
C2423 N4229 N4230 32.5 0.03 0.416 0.000 0 0
C2424 N4231 N4225 190.7 0.015 0.000 0.000 0 0
C2425 N4225 N4232 57.6 0.015 0.850 0.000 0 0
C2426 N4233 N4226 176.9 0.015 0.000 0.000 0 0
C2427 N4234 N4235 68.5 0.015 0.062 0.000 0 0
C2428 N4236 N4237 80.0 0.03 0.000 0.000 0 0
C2429 N4237 N4234 53.1 0.03 0.205 0.000 0 0
C2430 N4238 N4239 219.9 0.015 0.000 0.000 0 0
C2431 N4239 N4233 16.4 0.03 0.000 0.000 0 0
C2432 N4240 N4241 321.6 0.03 0.000 0.000 0 0
C2433 N4242 N4243 86.6 0.03 0.000 0.000 0 0
C2434 N4243 N4244 99.0 0.015 0.972 0.000 0 0
C2435 N4245 N4042 102.8 0.03 0.000 0.000 0 0
C2436 N4042 N4246 112.6 0.03 0.000 0.000 0 0
C2437 N4247 N4248 379.8 0.015 0.000 0.000 0 0
C2438 N4248 N4249 82.8 0.015 0.206 0.000 0 0
C2439 N4250 N4251 104.0 0.015 1.279 0.000 0 0
C2440 N4250 N4252 52.2 0.015 0.000 0.000 0 0
C2441 N4253 N4254 142.6 0.015 0.000 0.000 0 0
C2442 N4255 N4256 204.2 0.015 0.000 0.000 0 0
C2443 N4257 N4258 195.2 0.015 0.000 0.000 0 0
C2444 N4258 N4259 46.0 0.03 0.498 0.000 0 0
C2445 N4260 N4261 182.9 0.03 0.000 0.000 0 0
C2446 N4262 N4263 47.9 0.015 0.000 0.000 0 0
C2447 N4263 N4264 116.1 0.015 0.000 0.000 0 0
C2448 N4264 N4265 307.8 0.015 0.380 0.000 0 0
C2449 N4266 N4267 385.5 0.015 0.000 0.000 0 0
C2450 N4267 N4268 451.5 0.015 0.000 0.151 0 0
C2451 N4269 N4270 112.9 0.015 0.000 0.000 0 0
C2452 N4271 N4272 205.8 0.015 0.000 0.000 0 0
C2453 N4272 N4273 37.1 0.015 0.000 0.000 0 0
C2454 N4274 N4275 357.2 0.015 0.000 0.000 0 0
C2455 N4276 N4277 97.9 0.015 0.000 0.000 0 0
C2456 N4278 N4279 57.9 0.015 0.000 0.000 0 0
C2457 N4275 N4280 76.2 0.03 0.139 0.000 0 0
C2458 N4280 N4281 726.6 0.015 0.139 0.000 0 0
C2459 N4282 N4283 428.4 0.015 0.000 0.000 0 0
C2460 N4284 N4285 47.5 0.03 0.000 0.000 0 0
C2461 N4286 N4287 74.3 0.015 0.000 0.000 0 0
C2462 N4288 N4289 366.1 0.015 0.000 0.000 0 0
C2463 N4290 N4291 354.8 0.015 0.000 0.000 0 0
C2464 N4292 N4293 78.0 0.015 0.000 0.000 0 0
C2465 N4293 N4294 336.2 0.015 0.000 0.000 0 0
C2466 N4294 N4295 242.2 0.015 0.121 0.000 0 0
C2467 N4296 N4297 366.3 0.015 0.000 0.000 0 0
C2468 N4297 N4298 545.9 0.015 0.638 0.000 0 0
C2469 N4299 N4300 210.3 0.015 0.000 0.000 0 0
C2470 N4300 N4301 118.5 0.015 0.540 0.000 0 0
C2471 N4301 N4302 203.7 0.015 0.487 0.000 0 0
C2472 N4302 N4303 604.4 0.015 0.499 0.000 0 0
C2473 N4304 N4305 549.6 0.015 0.000 0.000 0 0
C2474 N4306 N4307 604.9 0.015 0.000 0.000 0 0
C2475 N4275 N4308 115.3 0.015 0.000 0.000 0 0
C2476 N4308 N4309 156.1 0.015 0.240 0.000 0 0
C2477 N4309 N4310 153.5 0.015 0.596 0.000 0 0
C2478 N4310 N4311 157.6 0.03 0.527 0.000 0 0
C2479 N4312 N4268 178.2 0.015 0.000 0.000 0 0
C2480 N4313 N4314 166.9 0.015 0.000 0.000 0 0
C2481 N4275 N4315 298.1 0.03 0.591 0.000 0 0
C2482 N4315 N4316 46.3 0.015 0.591 0.000 0 0
C2483 N4317 N4318 87.2 0.015 0.000 0.000 0 0
C2484 N4319 N4320 191.8 0.015 0.000 0.000 0 0
C2485 N4320 N4321 67.7 0.015 0.314 0.000 0 0
C2486 N4322 N4323 118.1 0.015 0.000 0.000 0 0
C2487 N4323 N4324 99.0 0.015 0.000 0.000 0 0
C2488 N4325 N4326 51.1 0.015 0.000 0.000 0 0
C2489 N4327 N4328 57.0 0.015 0.000 0.000 0 0
C2490 N4329 N4330 104.5 0.015 0.000 0.000 0 0
C2491 N4331 N4332 9.2 0.015 0.000 0.000 0 0
C2492 N4333 N4334 30.4 0.015 0.000 0.000 0 0
C2493 N4334 N4335 119.8 0.015 0.343 0.610 0 0
C2494 N4335 N4336 88.4 0.015 0.000 0.162 0 0
C2495 N4337 N4338 68.6 0.015 0.000 0.000 0 0
C2496 N4339 N4336 456.8 0.015 0.000 0.000 0 0
C2497 N4340 N4341 555.2 0.015 0.000 0.000 0 0
C2498 N4342 N4343 582.1 0.015 0.000 0.000 0 0
C2499 N4343 N4344 115.8 0.015 0.084 0.000 0 0
C2500 N4345 N4346 567.5 0.015 0.000 0.000 0 0
C2501 N4347 N4348 626.3 0.015 0.000 0.000 0 0
C2502 N4349 N4350 710.6 0.015 0.000 0.000 0 0
C2503 N4351 N4352 49.3 0.03 0.000 0.000 0 0
C2504 N4353 N4354 35.2 0.015 0.000 0.000 0 0
C2505 N4354 N4355 114.1 0.015 0.332 0.000 0 0
C2506 N4355 N4356 396.5 0.015 0.983 0.000 0 0
C2507 N4357 N4358 50.5 0.015 0.000 0.000 0 0
C2508 N4358 N4359 210.0 0.015 0.016 0.000 0 0
C2509 N4360 N4361 95.3 0.015 0.000 0.000 0 0
C2510 N4361 N4362 331.6 0.015 1.251 0.000 0 0
C2511 N4363 N4364 122.2 0.015 0.000 0.000 0 0
C2512 N4365 N4366 105.4 0.015 0.000 0.000 0 0
C2513 N4367 N4368 186.0 0.015 0.000 0.000 0 0
C2514 N4369 N4370 303.1 0.015 0.000 0.000 0 0
C2515 N4370 N4371 105.0 0.03 0.448 0.000 0 0
C2516 N4372 N4373 584.4 0.015 0.000 0.000 0 0
C2517 N4374 N4375 91.3 0.015 0.000 0.000 0 0
C2518 N4375 N4376 91.8 0.015 0.638 0.000 0 0
C2519 N4377 N4378 155.3 0.03 0.000 0.000 0 0
C2520 N4379 N4380 164.4 0.03 0.000 0.000 0 0
C2521 N4380 N4381 108.2 0.015 0.000 0.000 0 0
C2522 N4382 N4383 405.7 0.015 0.000 0.000 0 0
C2523 N4384 N4385 31.2 0.015 0.000 0.000 0 0
C2524 N4386 N4387 84.2 0.015 0.000 0.000 0 0
C2525 N4388 N4389 186.2 0.03 0.000 0.000 0 0
C2526 N4389 N4390 133.9 0.015 1.569 0.000 0 0
C2527 N4391 N4392 82.5 0.015 0.000 0.000 0 0
C2528 N4393 N4394 88.2 0.015 0.000 0.000 0 0
C2529 N4394 N4395 148.9 0.015 0.616 0.000 0 0
C2530 N4396 N4397 139.5 0.015 0.000 0.000 0 0
C2531 N4398 N4399 87.6 0.015 0.000 0.000 0 0
C2532 N4400 N4401 85.9 0.015 0.000 0.000 0 0
C2533 N4401 N4402 46.3 0.015 0.471 0.000 0 0
C2534 N4403 N4404 191.0 0.015 0.000 0.000 0 0
C2535 N4405 N4404 119.6 0.015 0.000 0.536 0 0
C2536 N4404 N4406 253.0 0.015 0.536 0.000 0 0
C2537 N4406 N4407 203.8 0.015 0.000 0.000 0 0
C2538 N4408 N4409 114.7 0.015 0.000 0.000 0 0
C2539 N4410 N4411 110.8 0.015 0.000 0.000 0 0
C2540 N4412 N4413 214.1 0.015 0.000 0.000 0 0
C2541 N4414 N4415 61.0 0.03 0.000 0.000 0 0
C2542 N4416 N4417 542.0 0.015 0.000 0.000 0 0
C2543 N4418 N4419 360.3 0.015 0.000 0.000 0 0
C2544 N4420 N4421 421.9 0.015 0.000 0.000 0 0
C2545 N4422 N4423 525.4 0.015 1.491 0.000 0 0
C2546 N4424 N4425 209.0 0.015 0.000 0.000 0 0
C2547 N4426 N4427 381.3 0.015 0.583 0.000 0 0
C2548 N4428 N4429 52.0 0.015 0.000 0.000 0 0
C2549 N4430 N4431 56.2 0.015 0.000 0.000 0 0
C2550 N4431 N4432 65.3 0.015 0.274 0.000 0 0
C2551 N4433 N4422 59.9 0.015 0.000 0.000 0 0
C2552 N4422 N4434 59.9 0.015 0.185 0.000 0 0
C2553 N4435 N4436 381.9 0.015 0.000 0.000 0 0
C2554 N4436 N4426 63.3 0.015 0.000 0.000 0 0
C2555 N4437 N4438 68.2 0.015 0.000 0.000 0 0
C2556 N4439 N4422 530.1 0.015 0.000 0.000 0 0
C2557 N4440 N4441 251.3 0.015 0.000 0.000 0 0
C2558 N4442 N4443 121.4 0.015 0.000 0.000 0 0
C2559 N4444 N4434 285.4 0.015 0.000 0.110 0 0
C2560 N4445 N4446 330.4 0.015 0.000 0.000 0 0
C2561 N4446 N4447 233.6 0.015 0.280 0.000 0 0
C2562 N4448 N4449 384.6 0.015 0.000 0.000 0 0
C2563 N4450 N4451 246.6 0.015 0.000 0.000 0 0
C2564 N4449 N4452 255.8 0.015 0.941 0.000 0 0
C2565 N4446 N4453 204.0 0.015 0.582 0.000 0 0
C2566 N4453 N4454 260.2 0.015 0.506 0.000 0 0
C2567 N4455 N4456 39.9 0.015 0.000 0.000 0 0
C2568 N4457 N4458 263.1 0.015 0.000 0.000 0 0
C2569 N4459 N4460 320.4 0.015 0.000 0.000 0 0
C2570 N4461 N4462 310.8 0.015 0.000 0.000 0 0
C2571 N4463 N4464 2516.9 0.015 0.000 0.000 0 0
C2572 N4465 N4466 932.5 0.015 0.000 0.000 0 0
C2573 N4467 N4468 130.5 0.015 0.000 0.000 0 0
C2574 N4468 N4469 335.8 0.015 0.453 0.000 0 0
C2575 N4470 N4471 280.9 0.015 0.000 0.000 0 0
C2576 N4472 N4473 13.5 0.015 0.000 0.000 0 0
C2577 N4474 N4475 16.1 0.015 0.000 0.000 0 0
C2578 N4476 N4477 22.1 0.015 0.000 0.000 0 0
C2579 N4478 N4479 11.7 0.015 0.000 0.000 0 0
C2580 N4417 N4480 41.6 0.015 0.000 0.000 0 0
C2581 N4251 N4481 184.0 0.015 0.831 0.000 0 0
C2582 N4482 N4483 60.5 0.015 0.000 0.000 0 0
C2583 N4484 N4485 36.5 0.015 0.000 0.000 0 0
C2584 N4486 N4487 23.8 0.03 0.000 0.000 0 0
C2585 N4488 N4489 77.5 0.015 0.000 0.000 0 0
C2586 N4490 N4491 198.7 0.015 0.000 0.000 0 0
C2587 N4492 N4493 62.7 0.015 0.000 0.000 0 0
C2588 N4494 N4495 96.0 0.015 0.000 0.000 0 0
C2589 N4496 N4497 84.0 0.015 0.000 0.000 0 0
C2590 N4497 N4498 96.3 0.015 0.000 0.000 0 0
C2591 N4499 N4500 16.3 0.015 0.000 0.000 0 0
C2592 N4500 N4501 123.7 0.015 0.000 0.000 0 0
C2593 N4498 N4488 20.2 0.015 0.000 0.000 0 0
C2594 N4502 N4503 463.9 0.03 0.000 0.000 0 0
C2595 N4504 N4505 543.4 0.015 0.000 0.000 0 0
C2596 N4506 N4507 152.5 0.015 0.000 0.000 0 0
C2597 N4508 N4509 140.5 0.015 0.000 0.000 0 0
C2598 N4510 N4511 141.8 0.015 0.000 0.000 0 0
C2599 N4512 N4513 122.1 0.015 0.000 0.000 0 0
C2600 N4514 N4515 99.9 0.03 0.000 0.000 0 0
C2601 N4516 N4517 97.1 0.015 0.000 0.000 0 0
C2602 N4518 N4519 86.6 0.015 0.000 0.000 0 0
C2603 N4520 N4521 61.9 0.03 0.000 0.000 0 0
C2604 N4522 N4523 54.3 0.015 0.000 0.000 0 0
C2605 N4524 N4525 292.4 0.015 0.000 0.000 0 0
C2606 N4526 N4527 140.9 0.015 0.000 0.000 0 0
C2607 N4527 N4528 73.4 0.015 0.271 0.000 0 0
C2608 N4528 N4529 93.0 0.015 0.014 0.000 0 0
C2609 N4530 N4531 68.8 0.015 0.000 0.000 0 0
C2610 N4532 N4533 56.9 0.015 0.000 0.000 0 0
C2611 N4534 N4535 84.7 0.015 0.000 0.000 0 0
C2612 N4536 N4537 201.9 0.015 0.000 0.000 0 0
C2613 N4538 N4539 65.5 0.015 0.000 0.000 0 0
C2614 N4540 N4541 36.9 0.015 0.000 0.000 0 0
C2615 N4542 N4543 60.9 0.015 0.000 0.000 0 0
C2616 N4544 N4545 81.4 0.015 0.000 0.555 0 0
C2617 N4546 N4547 68.5 0.015 0.000 0.000 0 0
C2618 N4548 N4545 147.0 0.015 0.000 0.000 0 0
C2619 N4549 N4550 169.7 0.015 0.000 0.000 0 0
C2620 N4550 N4551 355.1 0.015 0.315 0.000 0 0
C2621 N4551 N4552 424.6 0.015 0.315 0.000 0 0
C2622 N4553 N4554 199.0 0.015 0.000 0.000 0 0
C2623 N4555 N4556 137.6 0.015 0.000 0.000 0 0
C2624 N4557 N4558 91.0 0.015 0.725 0.000 0 0
C2625 N4559 N4560 311.9 0.015 0.000 0.000 0 0
C2626 N4561 N4562 270.7 0.03 0.000 0.000 0 0
C2627 N4563 N4564 40.6 0.015 0.000 0.000 0 0
C2628 N4565 N4566 379.9 0.015 0.000 0.000 0 0
C2629 N4567 N4568 152.2 0.015 0.000 0.000 0 0
C2630 N4569 N4570 120.6 0.015 0.000 0.000 0 0
C2631 N4571 N4572 227.4 0.015 0.000 0.000 0 0
C2632 N4573 N4574 110.2 0.015 0.000 0.000 0 0
C2633 N4574 N4575 212.9 0.015 0.000 0.000 0 0
C2634 N4576 N4577 163.6 0.015 0.000 0.000 0 0
C2635 N4578 N4579 628.8 0.015 0.000 0.000 0 0
C2636 N4580 N4581 203.0 0.015 0.000 0.000 0 0
C2637 N4582 N4583 105.5 0.015 0.000 0.000 0 0
C2638 N4584 N4585 60.9 0.015 0.000 0.000 0 0
C2639 N4586 N4587 108.9 0.015 0.000 0.000 0 0
C2640 N4588 N4589 98.2 0.015 0.000 0.000 0 0
C2641 N4590 N4591 88.0 0.015 0.000 0.000 0 0
C2642 N4592 N4593 103.1 0.015 0.000 0.000 0 0
C2643 N4594 N4595 199.2 0.015 0.000 0.000 0 0
C2644 N4595 N4596 96.2 0.015 1.444 0.000 0 0
C2645 N4597 N4598 90.8 0.015 0.000 0.000 0 0
C2646 N4599 N4600 301.6 0.015 0.000 0.000 0 0
C2647 N4600 N4597 127.1 0.015 1.050 0.000 0 0
C2648 N4572 N4557 45.7 0.015 0.463 0.000 0 0
C2649 N4601 N4602 198.2 0.015 0.000 0.000 0 0
C2650 N4603 N4604 554.7 0.015 0.000 0.000 0 0
C2651 N4605 N4606 76.5 0.015 0.000 0.000 0 0
C2652 N4607 N4608 102.0 0.015 0.000 0.000 0 0
C2653 N4609 N4610 227.7 0.015 0.000 0.000 0 0
C2654 N4611 N4130 1022.9 0.015 0.000 0.000 0 0
C2655 N4612 N4613 1013.6 0.015 0.000 0.000 0 0
C2656 N4614 N4615 393.0 0.015 0.000 0.000 0 0
C2657 N4616 N4617 243.7 0.03 0.000 0.000 0 0
C2658 N4618 N4619 338.0 0.03 0.000 0.000 0 0
C2659 N4620 N4621 193.4 0.015 0.000 0.000 0 0
C2660 N4622 N4623 91.5 0.015 0.000 0.000 0 0
C2661 N4623 N4624 164.9 0.03 0.554 0.024 0 0
C2662 N4625 N4626 350.9 0.015 0.000 0.000 0 0
C2663 N4627 N4628 807.9 0.015 0.000 0.000 0 0
C2664 N4629 N4630 151.5 0.015 0.000 0.000 0 0
C2665 N4631 N4632 116.7 0.03 0.000 0.000 0 0
C2666 N4633 N4634 64.4 0.03 0.000 0.000 0 0
C2667 N4634 N4635 68.7 0.03 0.000 0.000 0 0
C2668 N4636 N4637 110.1 0.03 0.000 0.000 0 0
C2669 N4638 N4639 68.6 0.015 0.000 0.000 0 0
C2670 N4640 N4641 76.1 0.015 1.774 0.000 0 0
C2671 N4642 N4643 264.0 0.015 0.000 0.000 0 0
C2672 N4644 N4645 49.0 0.015 0.000 0.000 0 0
C2673 N4154 N4646 339.0 0.015 0.000 0.000 0 0
C2674 N4647 N4648 61.3 0.015 0.000 0.000 0 0
C2675 N4156 N4649 4.0 0.015 0.000 0.000 0 0
C2676 N4650 N4651 44.6 0.03 0.000 0.000 0 0
C2677 N4652 N4653 35.5 0.015 0.234 0.000 0 0
C2678 N4654 N4655 27.8 0.03 0.000 0.000 0 0
C2679 N4652 N4656 118.6 0.015 0.000 0.000 0 0
C2680 N4657 N4653 116.8 0.015 0.000 0.091 0 0
C2681 N4658 N4659 48.9 0.015 0.000 0.000 0 0
C2682 N4659 N4660 52.2 0.03 0.481 0.000 0 0
C2683 N4661 N4662 227.1 0.015 0.000 0.000 0 0
C2684 N4663 N4664 50.8 0.015 0.000 0.000 0 0
C2685 N4664 N4665 80.7 0.015 0.152 0.000 0 0
C2686 N4666 N4667 100.3 0.015 0.000 0.000 0 0
C2687 N4167 N4668 371.9 0.015 0.929 0.000 0 0
C2688 N4669 N4670 241.2 0.015 0.000 0.000 0 0
C2689 N4671 N4672 247.5 0.03 0.000 0.000 0 0
C2690 N4673 N4674 370.7 0.015 0.000 0.000 0 0
C2691 N4675 N3738 307.2 0.015 0.000 0.000 0 0
C2692 N4676 N4677 336.8 0.015 0.000 0.000 0 0
C2693 N4678 N4679 84.5 0.015 0.000 0.000 0 0
C2694 N4680 N4681 91.1 0.015 0.000 0.000 0 0
C2695 N4681 N4682 423.4 0.015 1.988 0.000 0 0
C2696 N4682 N4683 28.2 0.015 2.594 0.000 0 0
C2697 N4602 N4684 138.3 0.015 0.000 0.000 0 0
C2698 N4684 N4685 4.5 0.015 0.241 0.000 0 0
C2699 N4686 N4640 142.0 0.015 0.000 0.000 0 0
C2700 N4687 N4688 143.2 0.03 0.000 0.000 0 0
C2701 N4689 N4690 223.2 0.03 0.000 0.000 0 0
C2702 N4691 N4692 1443.5 0.015 0.000 0.000 0 0
C2703 N4693 N4694 1498.7 0.015 0.000 0.000 0 0
C2704 N4695 N4696 63.1 0.03 0.000 0.000 0 0
C2705 N4697 N4698 321.1 0.015 0.000 0.000 0 0
C2706 N4699 N4700 308.3 0.015 0.000 0.000 0 0
C2707 N4701 N4702 116.8 0.03 0.000 0.000 0 0
C2708 N4703 N4704 94.8 0.03 0.000 0.000 0 0
C2709 N4705 N4696 77.4 0.03 0.000 0.631 0 0
C2710 N4706 N4707 217.0 0.015 0.000 0.000 0 0
C2711 N4708 N4709 220.4 0.015 0.000 0.000 0 0
C2712 N4709 N4710 72.6 0.015 0.812 0.000 0 0
C2713 N4711 N4712 420.7 0.015 0.000 0.000 0 0
C2714 N4712 N4713 391.7 0.015 0.874 0.000 0 0
C2715 N4714 N4715 339.3 0.015 0.000 0.000 0 0
C2716 N4716 N4717 246.3 0.015 0.000 0.000 0 0
C2717 N4718 N4719 257.6 0.015 0.000 0.000 0 0
C2718 N4720 N4721 273.3 0.015 0.257 0.000 0 0
C2719 N4722 N4723 794.0 0.015 0.000 0.000 0 0
C2720 N4724 N4725 57.1 0.015 0.000 0.000 0 0
C2721 N4726 N4727 39.9 0.015 0.000 0.000 0 0
C2722 N4728 N4729 108.9 0.015 0.000 0.000 0 0
C2723 N4730 N4731 267.5 0.015 0.000 0.000 0 0
C2724 N4732 N4733 225.8 0.015 0.000 0.000 0 0
C2725 N4733 N4734 49.6 0.015 0.000 0.000 0 0
C2726 N4735 N4736 56.6 0.015 0.000 0.000 0 0
C2727 N4737 N4738 62.7 0.015 0.000 0.000 0 0
C2728 N4739 N4740 237.3 0.015 0.000 0.000 0 0
C2729 N4741 N4742 25.0 0.015 0.000 0.000 0 0
C2730 N4743 N4744 20.3 0.015 0.000 0.000 0 0
C2731 N4745 N4746 188.3 0.015 0.256 0.000 0 0
C2732 N4747 N4748 80.0 0.015 0.000 0.000 0 0
C2733 N4749 N4750 59.1 0.015 0.000 0.000 0 0
C2734 N4751 N4752 9.5 0.015 0.000 0.000 0 0
C2735 N4753 N4754 237.3 0.03 0.000 0.000 0 0
C2736 N4755 N4756 572.5 0.015 0.000 0.000 0 0
C2737 N4756 N4757 321.0 0.015 0.348 0.000 0 0
C2738 N4758 N4759 427.8 0.015 0.000 0.000 0 0
C2739 N4760 N4761 229.3 0.015 0.000 0.000 0 0
C2740 N4762 N4763 252.2 0.015 0.000 0.000 0 0
C2741 N4764 N4765 129.7 0.015 0.000 0.000 0 0
C2742 N4766 N4767 218.1 0.015 0.000 0.000 0 0
C2743 N4768 N4769 70.6 0.015 0.000 0.000 0 0
C2744 N4770 N4771 293.2 0.015 0.000 0.000 0 0
C2745 N4771 N4772 144.7 0.015 0.000 0.000 0 0
C2746 N4773 N4774 170.5 0.015 0.000 0.000 0 0
C2747 N4774 N4775 334.0 0.015 0.000 0.000 0 0
C2748 N4776 N4777 150.2 0.015 0.000 0.000 0 0
C2749 N4778 N4779 368.4 0.015 0.000 0.000 0 0
C2750 N4780 N4781 71.4 0.015 0.000 0.000 0 0
C2751 N4781 N4782 499.4 0.015 1.652 0.000 0 0
C2752 N4783 N4784 321.9 0.015 0.000 0.000 0 0
C2753 N4785 N4786 319.9 0.015 0.000 0.000 0 0
C2754 N4779 N4787 512.8 0.015 0.000 0.000 0 0
C2755 N4787 N4788 276.3 0.015 0.923 0.000 0 0
C2756 N4789 N4790 62.4 0.03 0.000 0.000 0 0
C2757 N4790 N4791 180.7 0.03 0.050 0.000 0 0
C2758 N4791 N4687 55.5 0.03 0.181 0.512 0 0
C2759 N4792 N4781 499.4 0.015 0.000 1.129 0 0
C2760 N4793 N4794 160.8 0.015 0.000 0.000 0 0
C2761 N4795 N4745 259.3 0.015 0.000 0.000 0 0
C2762 N4796 N4720 29.9 0.015 0.000 0.000 0 0
C2763 N4797 N4798 238.3 0.015 0.000 0.000 0 0
C2764 N4618 N4799 291.6 0.015 1.655 0.000 0 0
C2765 N4800 N4801 102.4 0.015 0.000 0.000 0 0
C2766 N4801 N4802 307.1 0.015 0.749 0.000 0 0
C2767 N4803 N4804 387.8 0.015 0.000 0.000 0 0
C2768 N4617 N4805 10.4 0.015 0.478 0.000 0 0
C2769 N4806 N4807 77.1 0.015 0.000 0.000 0 0
C2770 N4808 N4809 44.6 0.015 0.000 0.000 0 0
C2771 N4810 N4811 140.5 0.015 0.000 0.000 0 0
C2772 N4811 N4812 145.6 0.015 0.000 0.000 0 0
C2773 N4813 N4624 155.3 0.015 0.000 0.000 0 0
C2774 N4814 N4626 8.6 0.015 0.000 0.705 0 0
C2775 N4815 N4816 143.4 0.015 0.000 0.000 0 0
C2776 N4809 N4817 117.4 0.015 0.978 0.000 0 0
C2777 N4624 N4818 155.3 0.015 1.200 0.000 0 0
C2778 N4819 N4820 460.6 0.015 0.000 0.000 0 0
C2779 N4821 N4822 213.8 0.015 0.000 0.000 0 0
C2780 N4823 N4824 492.0 0.015 0.000 0.000 0 0
C2781 N4825 N4826 643.9 0.015 0.000 0.000 0 0
C2782 N4827 N601 154.1 0.015 0.000 1.478 0 0
C2783 N4828 N4829 518.3 0.015 0.000 0.000 0 0
C2784 N4830 N4831 219.8 0.015 0.000 0.000 0 0
C2785 N4832 N4833 260.3 0.015 1.007 0.000 0 0
C2786 N4834 N4835 66.3 0.015 0.000 0.000 0 0
C2787 N4836 N4837 121.4 0.015 0.000 0.000 0 0
C2788 N4838 N4832 211.2 0.015 0.000 0.000 0 0
C2789 N4839 N4840 196.7 0.015 0.000 0.000 0 0
C2790 N4841 N4842 133.9 0.015 0.000 0.000 0 0
C2791 N4839 N4843 171.0 0.015 0.025 0.000 0 0
C2792 N4844 N4845 356.8 0.015 0.362 0.000 0 0
C2793 N4846 N4847 62.8 0.015 0.000 0.000 0 0
C2794 N4848 N4849 173.1 0.015 0.000 0.000 0 0
C2795 N587 N4850 388.0 0.015 0.382 0.000 0 0
C2796 N4851 N4852 174.3 0.015 0.000 0.000 0 0
C2797 N4853 N4854 57.8 0.015 0.000 0.000 0 0
C2798 N4855 N4856 279.4 0.015 0.000 0.000 0 0
C2799 N4857 N4858 166.1 0.015 0.000 0.000 0 0
C2800 N4859 N4860 179.3 0.015 0.000 0.000 0 0
C2801 N4861 N4862 120.8 0.015 0.000 0.000 0 0
C2802 N4859 N4863 220.1 0.015 0.097 0.000 0 0
C2803 N4863 N4864 90.2 0.015 1.826 0.000 0 0
C2804 N4865 N4866 103.0 0.015 0.000 0.000 0 0
C2805 N4864 N4867 99.9 0.015 0.541 0.000 0 0
C2806 N4867 N4868 140.0 0.015 0.000 0.000 0 0
C2807 N4869 N4870 141.0 0.015 0.000 0.000 0 0
C2808 N4871 N4838 65.9 0.015 0.000 0.000 0 0
C2809 N4872 N587 141.3 0.015 0.000 0.018 0 0
C2810 N4873 N4844 154.6 0.015 0.000 0.000 0 0
C2811 N4874 N4875 87.9 0.015 0.000 0.000 0 0
C2812 N4876 N4877 884.8 0.015 0.000 0.000 0 0
C2813 N4878 N4879 177.8 0.015 0.000 0.000 0 0
C2814 N4876 N4880 254.8 0.015 0.000 0.000 0 0
C2815 N4881 N4882 233.2 0.015 0.000 0.000 0 0
C2816 N4883 N4884 262.6 0.015 0.000 0.000 0 0
C2817 N4885 N4886 249.4 0.015 0.000 0.000 0 0
C2818 N4887 N4886 360.2 0.015 0.000 0.000 0 0
C2819 N4888 N4889 285.4 0.015 0.000 0.000 0 0
C2820 N4890 N4891 100.8 0.015 0.000 0.000 0 0
C2821 N4892 N4893 112.2 0.015 0.000 0.000 0 0
C2822 N4893 N4894 449.7 0.015 0.000 0.032 0 0
C2823 N4895 N4894 37.5 0.015 0.000 0.032 0 0
C2824 N4896 N4897 203.6 0.015 0.000 0.000 0 0
C2825 N4898 N4894 275.0 0.015 0.032 0.000 0 0
C2826 N4899 N4898 342.8 0.015 0.000 0.000 0 0
C2827 N4900 N4901 121.0 0.015 0.000 0.000 0 0
C2828 N4902 N4903 113.5 0.015 0.000 0.000 0 0
C2829 N4904 N4905 41.7 0.015 0.000 0.000 0 0
C2830 N4906 N4907 183.5 0.015 0.000 0.000 0 0
C2831 N4908 N4909 687.4 0.015 0.000 0.000 0 0
C2832 N4910 N4909 394.5 0.015 2.737 1.332 0 0
C2833 N4911 N4912 178.2 0.015 1.167 0.000 0 0
C2834 N4912 N4913 134.5 0.015 0.140 0.000 0 0
C2835 N4914 N4915 185.5 0.015 0.000 0.000 0 0
C2836 N4915 N4916 115.5 0.015 0.000 0.000 0 0
C2837 N4917 N4918 103.7 0.015 0.000 0.000 0 0
C2838 N4917 N4919 97.4 0.015 0.199 0.000 0 0
C2839 N4918 N4920 244.1 0.015 0.843 0.000 0 0
C2840 N4921 N4922 105.0 0.015 0.000 0.000 0 0
C2841 N4921 N4910 378.7 0.015 2.737 0.000 0 0
C2842 N4923 N4924 256.5 0.015 0.000 0.000 0 0
C2843 N4925 N4926 181.2 0.015 0.000 0.000 0 0
C2844 N4927 N4928 800.2 0.015 0.000 0.000 0 0
C2845 N4929 N4930 108.5 0.015 0.000 0.000 0 0
C2846 N4931 N4932 341.0 0.015 0.000 0.000 0 0
C2847 N4933 N4934 139.9 0.015 0.000 0.000 0 0
C2848 N4935 N4936 262.3 0.015 0.000 0.000 0 0
C2849 N4937 N4938 184.9 0.015 0.445 0.000 0 0
C2850 N4939 N4940 113.9 0.015 1.323 0.000 0 0
C2851 N4941 N4942 135.2 0.015 0.000 0.000 0 0
C2852 N4943 N4944 269.3 0.015 0.000 0.000 0 0
C2853 N4945 N4942 95.8 0.015 0.000 0.000 0 0
C2854 N4946 N4945 137.3 0.015 0.000 0.000 0 0
C2855 N4947 N4948 98.6 0.015 0.000 0.000 0 0
C2856 N4949 N4939 133.0 0.015 0.000 0.000 0 0
C2857 N4950 N4951 175.0 0.015 0.000 0.000 0 0
C2858 N4951 N4952 121.5 0.015 0.621 0.000 0 0
C2859 N4953 N4954 449.2 0.015 0.000 0.000 0 0
C2860 N4955 N4956 147.6 0.015 0.000 0.000 0 0
C2861 N4957 N4958 95.6 0.015 0.000 0.000 0 0
C2862 N4959 N4960 284.5 0.015 0.000 0.000 0 0
C2863 N4961 N4962 101.1 0.015 0.000 0.000 0 0
C2864 N4963 N4964 116.8 0.015 0.000 0.000 0 0
C2865 N4965 N4966 305.9 0.015 0.000 0.000 0 0
C2866 N4967 N4968 316.8 0.015 0.000 0.000 0 0
C2867 N4969 N4970 858.7 0.015 0.000 0.000 0 0
C2868 N4971 N4972 54.2 0.015 0.000 0.000 0 0
C2869 N4973 N4974 438.7 0.015 0.000 0.000 0 0
C2870 N4975 N4976 75.9 0.015 0.000 0.000 0 0
C2871 N4977 N4911 85.9 0.015 0.000 0.000 0 0
C2872 N4978 N4937 124.8 0.015 0.000 0.000 0 0
C2873 N4979 N4945 171.6 0.015 0.000 0.000 0 0
C2874 N4980 N4947 59.0 0.015 0.000 0.000 0 0
C2875 N4981 N4982 116.8 0.015 0.000 0.000 0 0
C2876 N4983 N4984 214.5 0.015 0.000 0.000 0 0
C2877 N4985 N4986 74.5 0.015 0.000 0.000 0 0
C2878 N4987 N4988 239.2 0.015 0.000 0.000 0 0
C2879 N4988 N4982 221.4 0.015 0.000 0.288 0 0
C2880 N4989 N4990 120.4 0.015 0.000 0.468 0 0
C2881 N4991 N4990 57.2 0.015 0.000 0.000 0 0
C2882 N4992 N4993 73.3 0.015 0.000 0.000 0 0
C2883 N4994 N4995 276.5 0.015 0.000 0.000 0 0
C2884 N4996 N4997 118.7 0.015 0.000 0.000 0 0
C2885 N4998 N4995 171.2 0.015 0.438 0.067 0 0
C2886 N4999 N5000 1159.3 0.015 0.000 0.000 0 0
C2887 N5001 N5002 287.5 0.015 0.000 0.000 0 0
C2888 N5003 N5004 109.8 0.015 0.000 0.000 0 0
C2889 N5005 N5006 454.1 0.015 0.000 0.000 0 0
C2890 N5007 N5008 351.4 0.015 0.000 0.000 0 0
C2891 N5009 N5010 129.9 0.015 0.000 0.000 0 0
C2892 N5011 N5012 641.2 0.015 0.000 0.000 0 0
C2893 N5013 N5014 127.0 0.015 0.000 0.000 0 0
C2894 N5014 N5015 68.6 0.015 0.183 0.000 0 0
C2895 N5015 N5016 143.1 0.015 0.000 0.000 0 0
C2896 N5017 N5018 69.3 0.015 0.000 0.000 0 0
C2897 N5019 N5020 152.3 0.015 0.000 0.000 0 0
C2898 N5021 N5022 274.7 0.015 0.000 0.000 0 0
C2899 N5023 N5024 71.7 0.015 0.000 0.000 0 0
C2900 N5025 N5026 314.8 0.015 0.000 0.198 0 0
C2901 N5026 N5027 123.6 0.015 0.000 0.000 0 0
C2902 N5028 N5029 362.2 0.015 0.000 0.000 0 0
C2903 N5030 N5031 52.9 0.015 0.000 0.000 0 0
C2904 N5032 N5033 94.0 0.015 0.000 0.000 0 0
C2905 N5034 N5035 179.8 0.015 0.000 0.000 0 0
C2906 N5036 N5037 154.9 0.015 0.000 0.000 0 0
C2907 N1202 N5038 197.5 0.015 2.584 0.000 0 0
C2908 N5039 N5040 136.2 0.015 0.000 0.000 0 0
C2909 N5012 N5041 312.2 0.015 0.431 0.000 0 0
C2910 N5035 N5041 732.8 0.015 0.974 0.007 0 0
C2911 N5042 N5043 779.0 0.015 0.000 0.000 0 0
C2912 N5044 N5045 46.3 0.015 0.000 0.000 0 0
C2913 N5033 N5046 385.9 0.015 0.000 0.000 0 0
C2914 N4998 N4997 139.3 0.015 0.000 0.000 0 0
C2915 N4997 N5047 140.0 0.015 0.000 0.000 0 0
C2916 N5048 N5049 724.5 0.015 0.000 0.000 0 0
C2917 N5049 N5025 212.5 0.015 0.053 0.000 0 0
C2918 N5050 N5051 319.7 0.015 0.000 0.000 0 0
C2919 N5052 N5053 1423.0 0.015 0.000 0.000 0 0
C2920 N5054 N5055 1391.4 0.015 0.000 0.000 0 0
C2921 N5056 N5057 239.4 0.015 0.000 0.000 0 0
C2922 N5058 N5059 85.3 0.015 0.000 0.000 0 0
C2923 N5060 N5061 162.7 0.015 0.000 0.000 0 0
C2924 N5062 N5063 343.1 0.015 0.000 0.000 0 0
C2925 N5064 N5065 340.0 0.015 0.000 0.000 0 0
C2926 N5066 N5067 332.3 0.015 0.000 0.000 0 0
C2927 N5068 N5069 226.6 0.015 0.000 0.730 0 0
C2928 N5070 N5069 49.2 0.015 0.000 0.000 0 0
C2929 N5071 N5072 237.0 0.015 0.000 0.000 0 0
C2930 N5072 N1125 320.0 0.015 0.829 0.000 0 0
C2931 N5073 N5074 43.8 0.015 0.000 0.000 0 0
C2932 N5075 N5076 557.6 0.015 0.000 0.000 0 0
C2933 N5077 N5078 341.7 0.015 0.000 0.000 0 0
C2934 N5079 N5080 674.8 0.03 0.000 0.000 0 0
C2935 N5081 N5082 219.4 0.015 0.000 0.000 0 0
C2936 N5083 N5084 262.9 0.015 0.000 0.000 0 0
C2937 N5085 N5086 179.7 0.015 0.000 0.000 0 0
C2938 N5087 N5088 134.8 0.015 0.000 0.000 0 0
C2939 N5089 N5090 139.6 0.015 0.000 0.000 0 0
C2940 N5091 N5092 227.1 0.015 0.000 0.000 0 0
C2941 N5092 N5093 229.9 0.015 0.000 0.000 0 0
C2942 N5094 N5095 311.3 0.015 0.904 0.109 0 0
C2943 N5096 N5097 197.9 0.015 0.000 0.000 0 0
C2944 N5098 N5099 131.3 0.015 0.000 0.000 0 0
C2945 N5100 N5101 164.8 0.015 0.000 0.000 0 0
C2946 N5102 N5103 133.2 0.015 0.000 0.000 0 0
C2947 N5104 N5105 46.1 0.015 0.000 0.000 0 0
C2948 N5106 N5107 241.0 0.015 0.000 0.000 0 0
C2949 N5108 N5109 225.8 0.015 0.000 0.000 0 0
C2950 N5110 N5111 189.6 0.015 0.000 0.000 0 0
C2951 N5112 N5113 172.2 0.015 0.000 0.000 0 0
C2952 N5114 N5115 165.5 0.015 0.000 0.000 0 0
C2953 N5116 N5117 226.2 0.015 0.000 0.000 0 0
C2954 N5118 N5119 181.5 0.015 0.000 0.000 0 0
C2955 N5120 N5121 133.1 0.015 0.000 0.000 0 0
C2956 N5122 N978 181.6 0.015 0.000 0.000 0 0
C2957 N978 N5123 166.6 0.015 0.916 0.000 0 0
C2958 N5124 N5125 193.1 0.015 0.000 0.000 0 0
C2959 N1008 N5126 213.5 0.015 0.000 0.000 0 0
C2960 N1010 N5127 242.8 0.015 0.000 0.000 0 0
C2961 N5128 N5129 218.4 0.015 0.000 0.000 0 0
C2962 N5130 N5131 214.4 0.015 0.000 0.000 0 0
C2963 N5132 N5080 225.1 0.015 0.000 0.098 0 0
C2964 N5080 N5133 216.2 0.015 0.345 0.000 0 0
C2965 N5134 N5135 1091.1 0.015 0.000 0.000 0 0
C2966 N5135 N5136 99.8 0.015 0.000 0.000 0 0
C2967 N5137 N5138 223.3 0.015 0.000 0.000 0 0
C2968 N5138 N5139 118.5 0.015 2.609 0.000 0 0
C2969 N5140 N5141 326.2 0.015 0.000 0.000 0 0
C2970 N5141 N5142 394.9 0.015 1.291 0.000 0 0
C2971 N5143 N5144 451.3 0.015 1.935 0.000 0 0
C2972 N975 N5145 222.8 0.015 0.000 0.346 0 0
C2973 N5145 N5143 639.9 0.015 0.000 0.000 0 0
C2974 N5146 N5147 180.2 0.015 0.000 0.000 0 0
C2975 N970 N5148 785.8 0.015 0.095 0.067 0 0
C2976 N5149 N5150 81.6 0.015 0.000 0.000 0 0
C2977 N5151 N5152 122.3 0.015 0.000 0.000 0 0
C2978 N5153 N5154 347.9 0.015 0.000 0.000 0 0
C2979 N5155 N5156 333.0 0.015 0.000 0.000 0 0
C2980 N5157 N5148 468.5 0.015 0.000 0.000 0 0
C2981 N5158 N5159 214.4 0.015 0.000 0.000 0 0
C2982 N5160 N5161 219.9 0.015 0.000 0.000 0 0
C2983 N5162 N5163 206.4 0.015 0.000 0.000 0 0
C2984 N5164 N5165 186.8 0.015 0.000 0.000 0 0
C2985 N5166 N5167 220.2 0.015 0.000 0.000 0 0
C2986 N5168 N5169 98.3 0.015 0.000 0.000 0 0
C2987 N5170 N5171 108.0 0.015 0.000 0.000 0 0
C2988 N5172 N5171 185.3 0.015 0.000 0.043 0 0
C2989 N5173 N970 324.0 0.015 0.000 0.095 0 0
C2990 N5174 N5175 168.7 0.015 0.000 0.000 0 0
C2991 N5175 N5176 86.1 0.015 1.405 0.000 0 0
C2992 N5095 N5177 105.1 0.015 0.000 0.000 0 0
C2993 N5177 N5094 206.1 0.015 0.741 0.000 0 0
C2994 N5178 N5179 210.9 0.015 0.000 0.000 0 0
C2995 N5180 N5181 72.2 0.015 0.000 0.000 0 0
C2996 N5182 N5183 623.3 0.015 0.000 0.000 0 0
C2997 N5184 N5183 266.1 0.015 0.000 0.000 0 0
C2998 N5185 N5186 339.6 0.015 0.000 0.000 0 0
C2999 N5186 N5187 55.6 0.015 0.000 0.000 0 0
C3000 N5187 N5188 144.8 0.03 1.621 0.000 0 0
C3001 N5189 N5190 266.5 0.015 0.000 0.000 0 0
C3002 N5191 N5192 527.7 0.015 0.000 0.000 0 0
C3003 N5193 N5194 531.9 0.015 0.000 0.000 0 0
C3004 N5195 N5196 101.1 0.015 0.000 0.000 0 0
C3005 N5197 N5198 152.1 0.015 0.000 0.000 0 0
C3006 N5199 N5200 449.6 0.015 0.000 0.000 0 0
C3007 N5200 N5201 65.5 0.015 1.017 0.000 0 0
C3008 N5201 N5202 288.3 0.015 1.507 0.000 0 0
C3009 N5203 N5204 284.9 0.015 0.000 0.000 0 0
C3010 N5205 N5206 369.4 0.015 0.000 0.000 0 0
C3011 N5207 N5208 154.2 0.015 0.000 0.000 0 0
C3012 N5209 N5210 131.3 0.015 0.000 0.000 0 0
C3013 N5211 N5212 130.2 0.015 0.000 0.000 0 0
C3014 N5213 N5214 102.5 0.015 0.000 0.000 0 0
C3015 N5215 N5216 287.1 0.015 0.000 0.000 0 0
C3016 N5217 N5218 146.3 0.015 0.000 0.000 0 0
C3017 N5219 N5220 891.7 0.015 0.000 0.000 0 0
C3018 N5221 N5222 52.2 0.015 0.000 0.000 0 0
C3019 N5222 N5223 229.4 0.015 0.010 0.000 0 0
C3020 N5224 N5225 358.5 0.015 0.000 0.000 0 0
C3021 N5226 N5227 189.0 0.015 0.000 0.000 0 0
C3022 N5228 N5229 260.5 0.015 0.000 0.000 0 0
C3023 N5230 N1094 479.2 0.015 0.000 0.000 0 0
C3024 N5231 N5232 240.0 0.015 0.000 0.000 0 0
C3025 N5233 N5234 715.6 0.015 0.000 0.000 0 0
C3026 N5235 N5236 308.9 0.015 0.000 0.000 0 0
C3027 N5237 N5238 285.5 0.015 0.000 0.000 0 0
C3028 N5239 N5240 256.4 0.015 0.000 0.000 0 0
C3029 N5241 N5242 85.1 0.015 0.000 0.000 0 0
C3030 N5243 N5244 305.7 0.015 0.000 0.000 0 0
C3031 N5245 N5246 145.5 0.015 0.000 0.000 0 0
C3032 N5247 N5248 285.7 0.015 0.000 0.000 0 0
C3033 N5249 N5250 239.5 0.015 0.000 0.000 0 0
C3034 N5251 N5252 365.0 0.015 0.000 0.000 0 0
C3035 N5253 N5254 416.5 0.015 0.000 0.000 0 0
C3036 N5255 N5256 964.4 0.015 0.000 0.903 0 0
C3037 N5256 N5185 964.4 0.015 0.000 0.050 0 0
C3038 N5257 N5258 660.0 0.015 0.000 0.000 0 0
C3039 N5259 N5260 329.0 0.015 0.000 0.000 0 0
C3040 N1094 N5231 694.7 0.015 1.248 0.000 0 0
C3041 N5261 N5262 106.4 0.015 0.000 0.000 0 0
C3042 N5263 N5264 116.6 0.015 0.000 0.000 0 0
C3043 N5265 N5266 215.7 0.015 0.000 0.000 0 0
C3044 N5267 N5268 211.5 0.015 0.000 0.000 0 0
C3045 N5269 N5270 162.8 0.015 0.000 0.000 0 0
C3046 N5271 N5272 278.8 0.015 0.000 0.000 0 0
C3047 N5273 N5274 285.9 0.015 0.000 0.000 0 0
C3048 N5275 N5276 281.5 0.015 0.000 0.000 0 0
C3049 N5277 N5278 289.3 0.015 0.000 0.000 0 0
C3050 N5279 N5280 253.1 0.015 0.000 0.000 0 0
C3051 N5280 N5281 54.2 0.015 0.000 0.000 0 0
C3052 N5282 N5283 129.1 0.015 0.000 0.000 0 0
C3053 N5284 N5285 71.8 0.015 0.000 0.000 0 0
C3054 N5286 N5287 123.7 0.015 0.000 0.011 0 0
C3055 N5288 N5289 296.7 0.015 0.000 0.000 0 0
C3056 N5290 N5291 98.1 0.015 0.000 0.000 0 0
C3057 N5292 N5293 201.7 0.015 0.000 0.000 0 0
C3058 N5294 N5295 116.2 0.015 0.000 0.000 0 0
C3059 N5296 N5297 75.6 0.015 0.000 0.000 0 0
C3060 N5298 N5299 139.8 0.015 0.000 0.000 0 0
C3061 N5300 N5301 71.1 0.015 0.000 0.000 0 0
C3062 N5302 N5303 76.9 0.015 0.000 0.000 0 0
C3063 N5304 N5305 88.1 0.015 0.000 0.000 0 0
C3064 N5306 N5307 118.9 0.015 0.000 0.000 0 0
C3065 N5308 N5309 91.9 0.015 0.000 0.000 0 0
C3066 N5310 N5311 76.7 0.015 0.000 0.000 0 0
C3067 N5312 N5313 333.4 0.015 0.000 0.000 0 0
C3068 N5314 N5315 244.7 0.015 0.000 0.000 0 0
C3069 N5315 N5316 95.4 0.015 0.166 0.000 0 0
C3070 N5316 N5317 87.8 0.015 0.149 0.000 0 0
C3071 N5318 N5319 27.0 0.015 0.000 0.000 0 0
C3072 N5320 N5321 78.6 0.015 0.000 0.000 0 0
C3073 N5287 N5322 68.1 0.015 0.000 0.000 0 0
C3074 N5323 N5324 171.1 0.015 0.000 0.000 0 0
C3075 N5325 N5326 112.9 0.015 0.000 0.000 0 0
C3076 N5327 N5328 84.6 0.015 0.000 0.000 0 0
C3077 N5289 N5329 336.6 0.015 0.000 0.000 0 0
C3078 N5330 N5331 96.0 0.015 0.000 0.000 0 0
C3079 N5332 N5333 358.2 0.015 0.000 0.000 0 0
C3080 N5334 N5335 288.9 0.015 0.000 0.073 0 0
C3081 N5336 N5337 125.8 0.015 0.000 0.000 0 0
C3082 N5338 N5339 99.4 0.015 0.000 0.000 0 0
C3083 N5340 N5341 84.1 0.015 0.000 0.000 0 0
C3084 N5342 N5343 80.4 0.015 0.000 0.000 0 0
C3085 N5344 N5345 80.8 0.015 0.000 0.000 0 0
C3086 N5346 N5347 336.7 0.015 0.000 0.000 0 0
C3087 N5348 N5335 219.9 0.015 0.000 0.000 0 0
C3088 N5349 N5350 143.9 0.015 0.000 0.000 0 0
C3089 N5351 N5352 41.3 0.015 0.000 0.000 0 0
C3090 N5353 N5354 140.0 0.015 0.000 0.000 0 0
C3091 N5355 N5356 107.3 0.015 0.000 0.000 0 0
C3092 N5357 N5358 48.2 0.015 0.000 0.000 0 0
C3093 N5335 N5359 160.2 0.015 0.479 0.000 0 0
C3094 N5360 N5361 194.9 0.015 0.000 0.000 0 0
C3095 N5362 N5363 106.2 0.015 0.000 0.000 0 0
C3096 N5364 N5365 142.8 0.015 0.000 0.000 0 0
C3097 N5366 N5367 155.0 0.015 0.000 0.000 0 0
C3098 N5368 N5369 169.8 0.015 0.000 0.000 0 0
C3099 N5370 N5371 262.6 0.015 0.000 0.000 0 0
C3100 N5372 N5373 163.9 0.015 0.000 0.000 0 0
C3101 N5374 N5375 157.2 0.015 0.000 0.000 0 0
C3102 N5376 N5377 239.7 0.015 0.000 0.000 0 0
C3103 N5378 N5379 137.9 0.015 0.000 0.000 0 0
C3104 N5379 N5380 51.5 0.015 0.000 0.000 0 0
C3105 N5381 N5382 93.7 0.015 0.000 0.000 0 0
C3106 N5383 N5384 146.0 0.015 0.000 0.000 0 0
C3107 N5385 N5386 242.3 0.015 0.000 0.000 0 0
C3108 N5387 N5388 184.2 0.015 0.000 0.000 0 0
C3109 N5389 N5390 88.5 0.015 0.000 0.000 0 0
C3110 N5390 N5391 129.3 0.015 0.623 0.012 0 0
C3111 N5392 N5393 88.8 0.015 0.000 0.000 0 0
C3112 N5394 N5391 139.8 0.015 0.000 0.000 0 0
C3113 N5395 N5396 204.4 0.015 0.000 0.000 0 0
C3114 N5397 N5398 54.3 0.015 0.000 0.000 0 0
C3115 N5399 N5400 39.2 0.015 0.000 0.000 0 0
C3116 N5401 N5402 502.9 0.015 0.000 0.000 0 0
C3117 N5402 N5403 103.0 0.015 0.053 0.000 0 0
C3118 N5404 N5405 105.9 0.015 0.000 0.000 0 0
C3119 N5406 N5407 85.5 0.015 0.000 0.000 0 0
C3120 N5408 N5409 106.6 0.015 0.000 0.000 0 0
C3121 N5410 N5411 153.9 0.015 0.000 0.000 0 0
C3122 N5412 N5413 106.7 0.015 0.000 0.000 0 0
C3123 N5414 N5415 105.8 0.015 0.000 0.000 0 0
C3124 N5416 N5417 106.1 0.015 0.000 0.000 0 0
C3125 N5418 N5419 251.8 0.015 0.000 0.000 0 0
C3126 N5420 N5421 115.6 0.015 0.000 0.000 0 0
C3127 N5421 N5422 52.7 0.015 0.089 0.000 0 0
C3128 N5283 N5423 20.5 0.015 1.214 0.000 0 0
C3129 N5424 N5425 1162.9 0.015 0.000 0.000 0 0
C3130 N5426 N5427 196.7 0.015 0.000 0.000 0 0
C3131 N5428 N5429 120.8 0.015 0.000 0.000 0 0
C3132 N5430 N5431 524.3 0.015 0.000 0.000 0 0
C3133 N5431 N5432 152.0 0.015 1.742 0.000 0 0
C3134 N5433 N5434 141.4 0.015 0.000 0.000 0 0
C3135 N5435 N5436 83.3 0.03 0.000 0.000 0 0
C3136 N5437 N5438 118.8 0.015 0.000 0.000 0 0
C3137 N5439 N5440 103.0 0.015 0.000 0.000 0 0
C3138 N5441 N5442 103.8 0.03 0.000 0.000 0 0
C3139 N5443 N5444 101.6 0.015 0.000 0.000 0 0
C3140 N5445 N5446 84.8 0.015 0.000 0.000 0 0
C3141 N5447 N5448 80.1 0.015 0.000 0.000 0 0
C3142 N5448 N5449 183.1 0.015 0.179 0.000 0 0
C3143 N5450 N5451 22.9 0.015 0.000 0.000 0 0
C3144 N5452 N5453 88.9 0.015 0.000 0.000 0 0
C3145 N5454 N5455 105.7 0.015 0.000 0.000 0 0
C3146 N5456 N5457 110.5 0.015 0.000 0.000 0 0
C3147 N5458 N5459 46.5 0.015 0.000 0.000 0 0
C3148 N5460 N5461 107.4 0.015 0.000 0.000 0 0
C3149 N5461 N5462 67.8 0.015 0.000 0.000 0 0
C3150 N5463 N5464 38.6 0.015 0.000 0.000 0 0
C3151 N5465 N5466 186.7 0.015 0.000 0.000 0 0
C3152 N5467 N5468 68.7 0.015 0.000 0.000 0 0
C3153 N5469 N5470 151.5 0.015 0.000 0.000 0 0
C3154 N5471 N5472 89.4 0.015 0.000 0.000 0 0
C3155 N5472 N1452 212.2 0.015 1.301 0.000 0 0
C3156 N5473 N5474 28.2 0.015 0.000 0.000 0 0
C3157 N5475 N5476 28.7 0.015 0.000 0.000 0 0
C3158 N5477 N5478 62.7 0.015 0.000 0.000 0 0
C3159 N5479 N5480 23.5 0.015 0.000 0.000 0 0
C3160 N5481 N5482 133.5 0.015 0.000 0.000 0 0
C3161 N5483 N5484 94.2 0.015 0.000 0.000 0 0
C3162 N5485 N5486 190.0 0.015 0.000 0.000 0 0
C3163 N5487 N5488 112.4 0.015 0.000 0.000 0 0
C3164 N5489 N5490 37.6 0.015 0.000 0.000 0 0
C3165 N5491 N5492 125.6 0.015 0.000 0.000 0 0
C3166 N5493 N5494 118.5 0.015 0.000 0.000 0 0
C3167 N1452 N5495 107.4 0.015 0.685 0.000 0 0
C3168 N5496 N5497 66.7 0.015 1.829 0.000 0 0
C3169 N5497 N5498 89.6 0.015 0.655 0.000 0 0
C3170 N5499 N5500 217.3 0.015 0.000 0.000 0 0
C3171 N5500 N5501 117.7 0.015 0.433 0.262 0 0
C3172 N5502 N5503 78.5 0.015 0.208 0.000 0 0
C3173 N5502 N5504 243.0 0.015 0.000 0.000 0 0
C3174 N5505 N5501 79.7 0.015 0.538 0.000 0 0
C3175 N5506 N5507 90.6 0.015 0.000 0.000 0 0
C3176 N5508 N5509 145.5 0.015 0.000 0.000 0 0
C3177 N5510 N5511 57.8 0.015 0.000 0.000 0 0
C3178 N5512 N5513 102.8 0.03 0.000 0.000 0 0
C3179 N5514 N5515 484.1 0.015 0.000 0.000 0 0
C3180 N5516 N5517 134.2 0.015 0.000 0.000 0 0
C3181 N5518 N5519 156.7 0.015 0.000 0.539 0 0
C3182 N5520 N5521 140.8 0.015 0.000 0.000 0 0
C3183 N5522 N5519 81.0 0.015 0.000 0.000 0 0
C3184 N5523 N5524 339.5 0.015 0.000 0.000 0 0
C3185 N5525 N5526 204.2 0.015 0.000 0.000 0 0
C3186 N5525 N5527 393.6 0.015 0.000 0.000 0 0
C3187 N5528 N5529 34.7 0.015 0.000 0.000 0 0
C3188 N5530 N5531 26.7 0.015 0.000 0.000 0 0
C3189 N5532 N5533 27.1 0.015 0.000 0.000 0 0
C3190 N5534 N5535 77.6 0.015 0.000 0.000 0 0
C3191 N5536 N5537 666.1 0.015 0.000 0.000 0 0
C3192 N5538 N1176 1061.1 0.015 0.000 0.304 0 0
C3193 N5539 N5540 221.9 0.015 0.000 0.000 0 0
C3194 N5540 N5541 31.6 0.015 0.000 0.000 0 0
C3195 N5541 N5542 92.1 0.015 0.387 0.000 0 0
C3196 N5543 N5544 59.7 0.015 0.586 0.000 0 0
C3197 N5545 N5546 132.0 0.015 0.000 0.000 0 0
C3198 N5547 N5548 103.6 0.015 0.000 0.000 0 0
C3199 N5549 N5550 121.4 0.015 0.000 0.000 0 0
C3200 N5551 N5552 110.4 0.015 0.000 0.000 0 0
C3201 N5542 N5553 185.8 0.015 1.107 0.000 0 0
C3202 N5543 N5554 121.2 0.015 0.000 0.000 0 0
C3203 N5555 N5556 451.1 0.015 0.000 0.000 0 0
C3204 N5557 N5558 448.3 0.015 0.000 0.000 0 0
C3205 N5559 N5560 178.1 0.015 0.000 0.000 0 0
C3206 N5561 N5562 457.1 0.015 0.000 0.453 0 0
C3207 N5563 N5564 59.6 0.015 0.000 0.000 0 0
C3208 N5565 N5566 32.6 0.015 0.000 0.000 0 0
C3209 N5567 N5568 152.2 0.015 0.542 0.000 0 0
C3210 N5568 N5569 51.0 0.015 1.359 0.000 0 0
C3211 N5569 N5570 30.9 0.015 0.000 0.000 0 0
C3212 N5571 N5572 269.5 0.015 0.000 0.000 0 0
C3213 N5573 N5574 60.4 0.015 0.000 0.000 0 0
C3214 N5575 N5576 126.6 0.015 0.000 0.000 0 0
C3215 N5576 N5577 100.5 0.015 1.192 0.000 0 0
C3216 N5577 N5578 129.6 0.015 1.546 0.000 0 0
C3217 N5579 N5580 279.8 0.015 0.000 0.000 0 0
C3218 N5581 N5582 119.6 0.015 0.000 0.000 0 0
C3219 N5583 N5584 440.9 0.015 0.000 0.000 0 0
C3220 N5585 N5501 95.0 0.015 0.000 0.460 0 0
C3221 N5562 N5556 79.1 0.015 0.000 0.012 0 0
C3222 N5556 N5586 112.0 0.015 1.440 0.000 0 0
C3223 N5586 N5587 242.3 0.015 2.602 0.000 0 0
C3224 N5588 N5589 134.1 0.015 0.000 0.000 0 0
C3225 N5590 N5591 122.7 0.015 0.000 0.000 0 0
C3226 N5592 N5593 114.9 0.015 0.000 0.000 0 0
C3227 N5594 N5595 286.9 0.015 0.000 0.139 0 0
C3228 N5595 N5596 242.1 0.015 0.000 0.000 0 0
C3229 N5597 N5598 133.9 0.015 0.000 0.000 0 0
C3230 N5599 N5600 132.7 0.015 0.000 0.000 0 0
C3231 N5601 N5602 627.4 0.015 0.000 0.000 0 0
C3232 N5603 N5604 356.7 0.015 0.000 0.000 0 0
C3233 N5605 N5606 324.3 0.015 0.000 0.000 0 0
C3234 N5607 N5608 69.2 0.015 0.000 0.000 0 0
C3235 N5609 N5610 203.8 0.015 0.000 0.000 0 0
C3236 N5611 N5612 47.6 0.015 0.838 0.000 0 0
C3237 N5613 N5614 114.5 0.015 0.000 0.000 0 0
C3238 N5615 N5616 116.5 0.015 0.000 0.000 0 0
C3239 N5617 N5616 22.8 0.015 0.000 0.142 0 0
C3240 N5618 N5619 470.8 0.015 0.000 0.000 0 0
C3241 N5620 N5621 622.2 0.015 0.000 0.000 0 0
C3242 N5622 N5623 321.4 0.015 0.000 0.000 0 0
C3243 N5624 N5625 270.2 0.015 0.000 0.000 0 0
C3244 N5625 N5626 235.3 0.015 0.000 0.000 0 0
C3245 N5626 N5627 263.3 0.015 0.000 0.000 0 0
C3246 N5628 N5611 336.2 0.015 0.000 0.000 0 0
C3247 N5611 N5629 183.2 0.015 0.864 0.000 0 0
C3248 N5630 N5505 50.2 0.015 0.000 0.000 0 0
C3249 N5631 N5496 90.0 0.015 0.000 0.000 0 0
C3250 N5562 N5567 86.6 0.015 2.516 0.000 0 0
C3251 N5632 N5633 99.3 0.015 0.000 0.000 0 0
C3252 N5634 N5635 25.2 0.015 0.000 0.000 0 0
C3253 N5636 N5637 328.7 0.015 0.000 0.000 0 0
C3254 N5638 N5639 274.8 0.015 0.000 0.000 0 0
C3255 N5640 N5641 143.1 0.015 0.000 0.000 0 0
C3256 N5642 N5643 250.8 0.015 0.000 0.000 0 0
C3257 N5644 N5645 120.0 0.015 0.000 0.000 0 0
C3258 N5646 N5647 151.5 0.015 0.000 0.000 0 0
C3259 N5648 N5649 144.2 0.015 0.000 0.000 0 0
C3260 N5650 N5651 56.5 0.015 0.000 0.000 0 0
C3261 N5652 N5653 148.1 0.015 0.000 0.000 0 0
C3262 N5654 N5655 83.5 0.015 0.000 0.000 0 0
C3263 N5656 N5657 115.3 0.015 0.000 0.000 0 0
C3264 N5658 N5659 132.8 0.015 1.804 0.000 0 0
C3265 N5660 N5661 301.2 0.015 0.000 0.000 0 0
C3266 N5662 N5663 60.7 0.015 0.000 0.000 0 0
C3267 N5664 N5665 193.8 0.015 0.000 0.000 0 0
C3268 N5666 N5667 72.8 0.015 0.000 0.000 0 0
C3269 N5668 N5669 72.6 0.015 0.000 0.000 0 0
C3270 N5670 N5671 166.5 0.015 0.000 0.000 0 0
C3271 N5672 N5673 208.7 0.015 0.000 0.000 0 0
C3272 N5674 N5675 102.6 0.015 0.000 0.000 0 0
C3273 N5675 N5676 90.9 0.015 1.208 0.000 0 0
C3274 N5677 N5678 211.7 0.015 0.000 0.000 0 0
C3275 N5679 N5680 266.0 0.015 0.000 0.000 0 0
C3276 N5681 N5682 707.8 0.015 8.652 0.000 0 0
C3277 N5683 N5684 822.4 0.015 7.712 0.000 0 0
C3278 N5685 N5686 324.3 0.015 0.000 0.000 0 0
C3279 N5687 N5681 248.5 0.015 0.000 1.166 0 0
C3280 N5688 N5689 198.3 0.015 0.000 0.000 0 0
C3281 N5689 N5690 154.3 0.015 1.185 0.000 0 0
C3282 N5690 N5691 142.5 0.015 2.446 0.000 0 0
C3283 N5692 N5693 192.9 0.015 0.000 0.000 0 0
C3284 N5693 N5694 176.9 0.015 1.838 0.000 0 0
C3285 N5695 N5696 119.5 0.015 0.000 0.000 0 0
C3286 N5697 N5698 209.1 0.015 0.000 0.000 0 0
C3287 N5699 N5700 155.2 0.015 0.000 0.167 0 0
C3288 N5701 N5702 66.3 0.015 0.000 0.842 0 0
C3289 N5703 N5704 55.3 0.015 0.000 0.000 0 0
C3290 N5705 N5706 88.1 0.015 0.000 0.000 0 0
C3291 N5707 N5708 29.0 0.015 0.000 0.000 0 0
C3292 N5709 N5683 616.1 0.015 0.000 4.861 0 0
C3293 N5710 N5711 87.1 0.015 0.000 0.000 0 0
C3294 N5712 N5713 87.3 0.015 0.000 0.000 0 0
C3295 N5714 N5715 99.9 0.015 0.000 0.000 0 0
C3296 N5715 N5716 151.5 0.015 0.000 0.000 0 0
C3297 N5717 N5718 97.2 0.015 0.622 0.000 0 0
C3298 N5719 N5717 96.0 0.015 0.000 0.000 0 0
C3299 N5720 N5721 96.6 0.015 0.000 0.000 0 0
C3300 N5722 N5721 96.6 0.015 0.000 0.313 0 0
C3301 N5723 N5724 96.3 0.03 0.000 0.000 0 0
C3302 N5725 N5726 127.6 0.03 0.000 0.000 0 0
C3303 N5727 N5728 99.7 0.015 0.000 0.000 0 0
C3304 N5729 N5730 54.1 0.015 0.000 0.000 0 0
C3305 N5731 N5732 118.9 0.015 0.000 0.000 0 0
C3306 N5657 N5658 34.3 0.015 0.362 0.000 0 0
C3307 N5661 N5733 39.7 0.015 0.000 0.000 0 0
C3308 N5675 N5734 63.9 0.015 0.397 0.000 0 0
C3309 N5690 N5735 142.5 0.015 1.428 0.000 0 0
C3310 N5700 N5701 35.6 0.015 0.000 0.842 0 0
C3311 N5736 N5737 25.6 0.015 0.394 0.000 0 0
C3312 N5702 N5736 58.4 0.015 0.000 0.000 0 0
C3313 N5738 N5683 593.7 0.015 0.000 0.000 0 0
C3314 N5739 N5681 115.3 0.015 0.000 0.000 0 0
C3315 N5740 N5741 224.6 0.015 0.000 0.000 0 0
C3316 N5742 N5743 187.7 0.015 0.000 0.000 0 0
C3317 N5744 N5745 39.2 0.015 0.000 0.000 0 0
C3318 N5746 N5747 105.4 0.015 0.000 0.000 0 0
C3319 N5748 N5749 22.3 0.015 0.000 0.000 0 0
C3320 N5750 N5751 152.0 0.015 0.000 0.000 0 0
C3321 N5752 N5753 165.8 0.015 0.000 0.000 0 0
C3322 N5753 N5754 223.1 0.015 0.556 0.000 0 0
C3323 N5755 N5756 180.1 0.015 0.000 0.000 0 0
C3324 N5757 N5758 229.3 0.015 0.000 0.000 0 0
C3325 N5757 N5759 126.2 0.015 0.297 0.000 0 0
C3326 N5759 N5760 185.7 0.015 0.297 0.000 0 0
C3327 N5761 N5762 29.5 0.015 0.000 0.000 0 0
C3328 N5763 N5764 141.7 0.015 0.000 0.000 0 0
C3329 N5765 N5766 699.9 0.015 0.000 1.172 0 0
C3330 N5767 N5768 188.4 0.015 0.000 0.000 0 0
C3331 N5769 N5770 183.5 0.015 0.000 0.000 0 0
C3332 N5771 N5772 160.1 0.015 0.000 0.000 0 0
C3333 N5773 N5774 53.9 0.015 0.000 0.000 0 0
C3334 N5775 N5776 233.0 0.015 0.000 0.000 0 0
C3335 N5777 N5778 230.0 0.015 0.000 0.000 0 0
C3336 N5779 N5780 280.3 0.015 0.000 0.000 0 0
C3337 N5756 N5781 185.9 0.015 0.447 0.007 0 0
C3338 N5781 N5782 187.4 0.015 0.000 0.000 0 0
C3339 N5783 N5784 137.7 0.015 0.000 0.000 0 0
C3340 N5785 N5786 74.9 0.015 0.000 0.000 0 0
C3341 N5787 N5788 250.5 0.015 0.000 0.000 0 0
C3342 N5789 N5790 133.8 0.015 0.000 0.000 0 0
C3343 N5791 N5792 134.3 0.015 0.000 0.000 0 0
C3344 N5793 N5794 381.7 0.015 0.000 0.000 0 0
C3345 N5795 N5796 238.7 0.015 0.000 0.000 0 0
C3346 N5797 N5798 160.6 0.015 0.000 0.000 0 0
C3347 N5799 N5800 166.3 0.015 0.000 0.000 0 0
C3348 N5801 N5802 148.3 0.015 0.000 0.000 0 0
C3349 N5802 N5803 88.3 0.015 0.967 0.000 0 0
C3350 N5804 N5805 80.3 0.015 0.000 0.000 0 0
C3351 N5806 N5807 79.9 0.015 0.000 0.000 0 0
C3352 N5808 N5809 192.7 0.015 0.000 0.000 0 0
C3353 N5810 N5811 210.5 0.015 0.000 0.000 0 0
C3354 N5811 N5812 195.6 0.015 0.000 0.000 0 0
C3355 N5813 N5814 213.9 0.015 0.000 0.000 0 0
C3356 N5815 N5816 47.1 0.015 0.000 0.000 0 0
C3357 N5817 N1855 155.9 0.015 0.000 0.000 0 0
C3358 N1858 N5818 214.3 0.015 0.000 0.000 0 0
C3359 N5819 N1866 227.2 0.015 0.000 0.000 0 0
C3360 N5820 N5821 93.3 0.015 0.905 0.000 0 0
C3361 N5821 N5822 238.3 0.015 0.000 0.000 0 0
C3362 N5823 N5824 207.3 0.015 0.000 0.000 0 0
C3363 N5825 N5826 49.0 0.015 0.000 0.000 0 0
C3364 N5827 N5828 66.2 0.015 0.000 0.000 0 0
C3365 N5829 N5830 56.3 0.015 0.000 0.000 0 0
C3366 N5831 N5832 37.2 0.015 0.000 0.000 0 0
C3367 N5832 N5833 61.4 0.015 0.601 0.000 0 0
C3368 N5834 N5835 72.5 0.015 0.000 0.000 0 0
C3369 N1860 N5836 32.3 0.015 1.051 0.000 0 0
C3370 N5837 N5838 63.8 0.015 0.000 0.000 0 0
C3371 N5839 N5840 85.6 0.015 0.000 0.000 0 0
C3372 N5841 N5842 13.1 0.015 0.000 0.000 0 0
C3373 N5843 N5844 75.3 0.015 0.000 0.000 0 0
C3374 N5845 N5846 82.4 0.015 0.000 0.000 0 0
C3375 N5847 N5848 428.3 0.015 0.000 0.000 0 0
C3376 N5849 N5766 470.0 0.015 0.000 0.000 0 0
C3377 N5850 N5851 28.2 0.015 0.000 0.000 0 0
C3378 N5851 N5852 210.8 0.015 2.990 0.000 0 0
C3379 N5853 N5854 180.4 0.015 0.000 0.000 0 0
C3380 N5855 N5820 146.2 0.015 0.000 0.000 0 0
C3381 N5856 N5857 155.4 0.015 0.000 0.000 0 0
C3382 N5858 N5859 375.8 0.015 0.000 0.000 0 0
C3383 N5860 N5861 104.7 0.015 0.000 0.000 0 0
C3384 N5862 N5863 182.5 0.015 0.000 0.000 0 0
C3385 N5864 N5865 149.9 0.015 0.000 0.000 0 0
C3386 N5866 N5867 171.7 0.015 0.000 0.000 0 0
C3387 N5868 N5869 41.1 0.015 0.000 0.000 0 0
C3388 N5870 N5871 60.5 0.015 0.000 0.000 0 0
C3389 N5872 N5873 217.2 0.015 1.262 0.000 0 0
C3390 N5874 N5875 458.1 0.015 0.000 0.000 0 0
C3391 N5876 N2346 518.8 0.015 0.000 0.475 0 0
C3392 N5877 N5878 502.1 0.015 0.000 0.000 0 0
C3393 N5879 N5880 165.4 0.015 0.000 0.000 0 0
C3394 N5881 N5882 90.1 0.015 0.000 0.000 0 0
C3395 N5883 N5884 96.2 0.015 0.000 0.000 0 0
C3396 N5885 N5886 97.0 0.015 0.000 0.000 0 0
C3397 N5887 N5888 81.1 0.015 0.000 0.000 0 0
C3398 N5889 N5890 82.5 0.015 0.000 0.000 0 0
C3399 N5891 N5892 30.1 0.015 0.000 0.000 0 0
C3400 N5893 N5894 31.9 0.015 0.000 0.000 0 0
C3401 N5895 N5896 170.5 0.015 0.000 0.000 0 0
C3402 N5897 N5898 59.1 0.015 0.000 0.000 0 0
C3403 N5898 N5899 61.6 0.015 0.357 0.000 0 0
C3404 N5900 N5901 168.3 0.015 0.000 0.000 0 0
C3405 N5902 N5903 301.4 0.015 0.000 0.000 0 0
C3406 N5904 N5905 300.8 0.015 0.000 0.000 0 0
C3407 N5906 N5907 384.6 0.015 0.000 0.000 0 0
C3408 N5908 N5909 104.5 0.015 0.000 0.000 0 0
C3409 N5910 N2369 79.4 0.015 0.032 0.000 0 0
C3410 N5911 N5912 94.6 0.015 0.000 0.000 0 0
C3411 N5913 N5914 381.2 0.015 1.863 0.000 0 0
C3412 N5915 N5916 264.7 0.015 0.000 0.000 0 0
C3413 N5917 N5918 29.6 0.015 0.000 0.000 0 0
C3414 N5919 N5920 98.9 0.015 0.000 0.000 0 0
C3415 N5921 N5922 102.5 0.015 0.000 0.000 0 0
C3416 N5923 N5924 92.3 0.015 0.000 0.000 0 0
C3417 N5925 N5926 93.1 0.015 0.000 0.000 0 0
C3418 N5927 N5928 18.5 0.015 0.000 0.000 0 0
C3419 N5929 N5930 16.1 0.015 0.000 0.000 0 0
C3420 N5931 N5932 101.5 0.015 0.000 0.000 0 0
C3421 N5933 N5934 97.8 0.015 0.000 0.000 0 0
C3422 N5935 N5936 13.0 0.015 0.000 0.000 0 0
C3423 N5937 N5938 182.6 0.015 0.000 0.000 0 0
C3424 N5939 N5940 181.2 0.015 0.000 0.000 0 0
C3425 N5941 N5942 68.2 0.015 0.000 0.000 0 0
C3426 N5943 N5944 70.5 0.015 0.000 0.000 0 0
C3427 N5945 N5946 83.5 0.015 0.000 0.000 0 0
C3428 N5947 N5948 89.1 0.015 0.000 0.000 0 0
C3429 N5949 N5950 87.8 0.015 0.000 0.000 0 0
C3430 N1913 N5951 251.8 0.015 0.000 0.000 0 0
C3431 N5952 N5953 182.1 0.015 0.000 0.000 0 0
C3432 N5954 N1919 61.9 0.015 0.000 0.000 0 0
C3433 N5875 N5955 282.0 0.015 0.568 0.000 0 0
C3434 N5956 N5957 168.9 0.015 0.000 0.000 0 0
C3435 N5958 N5959 107.8 0.015 0.000 0.000 0 0
C3436 N5960 N5961 261.9 0.015 0.000 0.000 0 0
C3437 N5962 N5963 229.4 0.015 0.000 0.000 0 0
C3438 N1930 N3111 396.7 0.015 0.000 0.000 0 0
C3439 N5964 N5965 110.6 0.015 0.000 0.000 0 0
C3440 N5966 N5967 72.3 0.015 0.000 0.000 0 0
C3441 N5968 N5969 111.1 0.015 0.000 0.000 0 0
C3442 N5970 N5971 72.2 0.015 0.000 0.000 0 0
C3443 N5972 N5973 139.4 0.015 0.000 0.000 0 0
C3444 N5974 N5870 144.9 0.015 0.000 0.060 0 0
C3445 N5975 N5872 46.0 0.015 0.000 0.000 0 0
C3446 N5953 N5976 144.9 0.015 0.000 0.000 0 0
C3447 N5977 N5913 81.6 0.015 0.000 0.000 0 0
C3448 N5907 N5978 67.9 0.015 0.112 0.000 0 0
C3449 N5979 N5910 126.8 0.015 0.000 0.000 0 0
C3450 N5912 N5980 89.6 0.015 0.000 0.000 0 0
C3451 N5951 N5981 155.6 0.015 0.869 0.000 0 0
C3452 N2762 N5982 140.1 0.015 0.000 0.000 0 0
C3453 N5983 N5984 104.7 0.015 0.000 0.000 0 0
C3454 N5985 N5986 127.8 0.015 0.000 0.000 0 0
C3455 N5987 N5986 51.2 0.015 0.000 0.000 0 0
C3456 N5988 N5989 667.4 0.03 0.000 0.000 0 0
C3457 N5990 N5991 126.9 0.015 0.000 0.000 0 0
C3458 N5992 N5993 139.0 0.015 0.000 0.000 0 0
C3459 N5994 N5995 188.1 0.015 0.000 0.000 0 0
C3460 N5994 N5996 41.1 0.015 0.000 0.000 0 0
C3461 N5997 N5998 88.5 0.015 0.000 0.000 0 0
C3462 N5999 N6000 94.0 0.015 0.000 0.000 0 0
C3463 N2757 N6001 347.8 0.03 0.000 0.000 0 0
C3464 N6002 N6003 43.0 0.015 0.000 0.000 0 0
C3465 N6004 N6005 106.6 0.015 0.000 0.000 0 0
C3466 N6006 N6007 148.6 0.015 0.000 0.000 0 0
C3467 N6008 N6009 171.6 0.015 0.000 0.000 0 0
C3468 N6010 N6011 158.2 0.015 0.000 0.000 0 0
C3469 N6012 N6013 61.0 0.015 0.000 0.000 0 0
C3470 N6014 N6015 198.6 0.015 0.000 0.000 0 0
C3471 N6016 N6017 151.3 0.015 0.000 0.000 0 0
C3472 N6018 N6017 150.7 0.015 0.000 0.000 0 0
C3473 N6019 N6020 136.7 0.015 0.000 0.000 0 0
C3474 N6021 N6022 141.5 0.015 0.000 0.000 0 0
C3475 N6023 N6024 114.9 0.015 0.000 0.000 0 0
C3476 N6025 N6026 254.4 0.015 0.000 0.000 0 0
C3477 N6027 N6028 62.1 0.015 0.000 0.000 0 0
C3478 N6029 N6030 162.1 0.015 0.000 0.000 0 0
C3479 N6031 N6032 162.8 0.015 0.000 0.000 0 0
C3480 N6033 N6034 199.7 0.015 0.000 0.000 0 0
C3481 N6035 N6036 112.2 0.015 0.000 0.000 0 0
C3482 N6037 N6038 84.6 0.015 0.000 0.000 0 0
C3483 N6039 N6038 90.0 0.015 0.000 0.796 0 0
C3484 N6040 N6041 92.8 0.015 0.000 0.000 0 0
C3485 N6042 N6043 169.5 0.015 0.000 0.000 0 0
C3486 N6044 N6045 162.3 0.015 0.000 0.000 0 0
C3487 N6046 N6047 252.9 0.015 0.000 0.000 0 0
C3488 N6048 N6049 163.1 0.015 0.000 0.000 0 0
C3489 N6050 N6051 562.5 0.015 0.000 0.000 0 0
C3490 N6052 N6053 705.8 0.015 0.000 0.000 0 0
C3491 N6053 N6054 145.2 0.03 0.000 0.000 0 0
C3492 N6055 N6056 1162.8 0.015 0.000 0.000 0 0
C3493 N6057 N6058 597.8 0.015 0.000 0.000 0 0
C3494 N6059 N6060 112.7 0.015 0.000 0.000 0 0
C3495 N6061 N6062 119.0 0.015 0.000 0.000 0 0
C3496 N6063 N6064 164.2 0.015 0.000 0.000 0 0
C3497 N6065 N6066 39.2 0.015 0.000 0.000 0 0
C3498 N6067 N6068 168.8 0.015 0.000 0.000 0 0
C3499 N6069 N6070 64.7 0.015 0.189 0.000 0 0
C3500 N6069 N6071 95.5 0.03 0.000 0.000 0 0
C3501 N6072 N6073 33.8 0.03 0.000 0.000 0 0
C3502 N6074 N6075 170.4 0.015 0.000 0.000 0 0
C3503 N6076 N6077 180.4 0.015 0.000 0.000 0 0
C3504 N6078 N6079 180.8 0.015 0.000 0.000 0 0
C3505 N6080 N6081 196.0 0.015 0.000 0.000 0 0
C3506 N6082 N6083 200.2 0.015 0.000 0.000 0 0
C3507 N6084 N6085 57.8 0.015 0.000 0.000 0 0
C3508 N6085 N6086 132.1 0.015 4.056 0.000 0 0
C3509 N6087 N6088 121.1 0.03 0.000 0.000 0 0
C3510 N6089 N6090 136.9 0.015 0.000 0.000 0 0
C3511 N6091 N6092 135.9 0.015 0.000 0.000 0 0
C3512 N6093 N2759 621.8 0.015 0.000 0.000 0 0
C3513 N6094 N6095 56.2 0.015 0.000 0.000 0 0
C3514 N6095 N6096 122.8 0.015 0.000 0.000 0 0
C3515 N6097 N6098 294.3 0.015 0.000 0.349 0 0
C3516 N6099 N6100 198.7 0.015 0.000 0.000 0 0
C3517 N6101 N6102 99.5 0.015 0.000 0.000 0 0
C3518 N6103 N6104 54.3 0.015 0.000 0.000 0 0
C3519 N6104 N6105 120.0 0.015 0.157 0.000 0 0
C3520 N6105 N6106 64.2 0.015 0.060 0.000 0 0
C3521 N6107 N6108 118.2 0.015 0.000 0.000 0 0
C3522 N6109 N6098 21.0 0.015 0.000 0.000 0 0
C3523 N6110 N6111 151.2 0.015 0.000 0.000 0 0
C3524 N6111 N6112 56.7 0.015 0.077 0.000 0 0
C3525 N6113 N6114 407.7 0.015 0.000 0.000 0 0
C3526 N6115 N6116 74.8 0.015 0.000 0.000 0 0
C3527 N6117 N6114 219.8 0.015 0.000 0.000 0 0
C3528 N6118 N6119 222.5 0.015 0.000 0.000 0 0
C3529 N6120 N6121 128.0 0.015 0.910 1.402 0 0
C3530 N6122 N6123 105.5 0.015 0.000 0.000 0 0
C3531 N6124 N6125 120.9 0.015 0.000 0.000 0 0
C3532 N6126 N6120 210.9 0.015 0.000 0.000 0 0
C3533 N6127 N6128 118.2 0.015 0.000 0.000 0 0
C3534 N6129 N6130 39.4 0.015 0.000 0.000 0 0
C3535 N6131 N6132 52.9 0.015 0.000 0.000 0 0
C3536 N6133 N6134 327.8 0.015 0.000 0.000 0 0
C3537 N6135 N6136 111.9 0.015 0.000 0.000 0 0
C3538 N6137 N6138 114.1 0.015 0.000 0.000 0 0
C3539 N6139 N6140 123.8 0.015 0.000 0.513 0 0
C3540 N6141 N6142 113.5 0.015 0.000 0.000 0 0
C3541 N6143 N6144 32.0 0.015 0.000 0.000 0 0
C3542 N6145 N6146 49.7 0.015 0.000 0.000 0 0
C3543 N6147 N6148 65.8 0.015 0.000 0.000 0 0
C3544 N6149 N6150 55.0 0.015 0.000 0.000 0 0
C3545 N6151 N6152 171.2 0.015 0.000 0.000 0 0
C3546 N6153 N6154 51.1 0.015 0.000 0.000 0 0
C3547 N6140 N6155 156.8 0.015 0.000 0.000 0 0
C3548 N6138 N6156 10.0 0.015 0.000 0.000 0 0
C3549 N6157 N6158 53.0 0.015 0.000 0.000 0 0
C3550 N6159 N6160 52.9 0.015 0.000 0.000 0 0
C3551 N6161 N6162 81.8 0.015 0.000 0.000 0 0
C3552 N6163 N6164 133.3 0.015 0.000 0.000 0 0
C3553 N6134 N6165 78.5 0.015 0.000 0.000 0 0
C3554 N6166 N6167 200.3 0.015 0.000 0.000 0 0
C3555 N6168 N6169 242.0 0.015 0.000 0.000 0 0
C3556 N6170 N6171 38.3 0.015 0.000 0.000 0 0
C3557 N6172 N6173 218.2 0.015 0.000 0.000 0 0
C3558 N6174 N6175 5.0 0.015 0.000 0.000 0 0
C3559 N6176 N6121 225.6 0.015 0.000 0.000 0 0
C3560 N6177 N2768 113.4 0.015 0.000 1.215 0 0
C3561 N6178 N6179 845.8 0.015 0.000 0.000 0 0
C3562 N6180 N6181 322.7 0.015 0.000 0.000 0 0
C3563 N6182 N6183 137.9 0.015 0.000 0.000 0 0
C3564 N6183 N6184 329.2 0.015 2.038 0.000 0 0
C3565 N6185 N6186 369.5 0.015 0.000 0.000 0 0
C3566 N6186 N6187 95.8 0.015 0.491 0.000 0 0
C3567 N6188 N6189 126.2 0.015 0.000 0.000 0 0
C3568 N6190 N6191 187.8 0.015 0.000 0.000 0 0
C3569 N6192 N6193 408.0 0.015 0.000 0.000 0 0
C3570 N6194 N6195 71.9 0.015 0.000 0.000 0 0
C3571 N6196 N6191 233.7 0.015 0.000 0.000 0 0
C3572 N6197 N6198 495.7 0.015 0.000 0.000 0 0
C3573 N6199 N6200 261.9 0.015 0.000 0.000 0 0
C3574 N6201 N6202 264.7 0.015 0.000 0.000 0 0
C3575 N6203 N6204 215.3 0.015 0.000 0.000 0 0
C3576 N6205 N6206 221.2 0.015 0.000 0.000 0 0
C3577 N6207 N6208 220.1 0.015 0.000 0.000 0 0
C3578 N6209 N6210 91.3 0.015 0.000 0.000 0 0
C3579 N6211 N6212 349.0 0.015 0.000 0.000 0 0
C3580 N6212 N6213 108.0 0.015 1.082 0.000 0 0
C3581 N6214 N6208 82.4 0.015 0.000 0.000 0 0
C3582 N6215 N6216 259.5 0.015 0.000 0.000 0 0
C3583 N6217 N6218 92.5 0.015 0.000 0.000 0 0
C3584 N6219 N2746 114.0 0.015 0.000 0.000 0 0
C3585 N6220 N6221 192.8 0.015 0.000 0.000 0 0
C3586 N6222 N6223 74.2 0.015 0.000 0.000 0 0
C3587 N6224 N6225 46.7 0.015 0.000 0.000 0 0
C3588 N6226 N6227 61.4 0.015 0.000 0.000 0 0
C3589 N6228 N6229 207.2 0.015 0.000 0.000 0 0
C3590 N6230 N6231 276.1 0.015 0.000 0.000 0 0
C3591 N6230 N6232 153.3 0.015 0.139 0.000 0 0
C3592 N6232 N6233 164.5 0.015 0.139 0.000 0 0
C3593 N6234 N6235 165.9 0.015 0.000 0.000 0 0
C3594 N6236 N6237 192.2 0.015 0.000 0.000 0 0
C3595 N6237 N6238 58.0 0.015 0.821 0.000 0 0
C3596 N6239 N6240 222.6 0.015 0.000 0.000 0 0
C3597 N6241 N6242 102.7 0.015 0.000 0.000 0 0
C3598 N6242 N6243 35.0 0.015 0.331 0.000 0 0
C3599 N6244 N6245 125.2 0.015 0.000 0.000 0 0
C3600 N6246 N6247 199.0 0.015 0.000 0.000 0 0
C3601 N6248 N6249 62.4 0.015 0.000 0.000 0 0
C3602 N6249 N6250 53.8 0.015 1.233 0.000 0 0
C3603 N6251 N6252 188.7 0.015 0.000 0.000 0 0
C3604 N6252 N6023 145.5 0.015 1.984 0.000 0 0
C3605 N6253 N6254 138.6 0.015 0.000 0.000 0 0
C3606 N6254 N6255 23.3 0.015 2.412 0.000 0 0
C3607 N6256 N5998 259.4 0.015 0.000 0.206 0 0
C3608 N5998 N6257 182.3 0.015 0.206 0.000 0 0
C3609 N6119 N6120 102.6 0.015 0.000 0.910 0 0
C3610 N6258 N6259 182.1 0.015 0.000 0.000 0 0
C3611 N6260 N6261 160.4 0.015 0.000 0.000 0 0
C3612 N6262 N6263 167.0 0.015 0.000 0.000 0 0
C3613 N5989 N6264 73.6 0.015 0.499 0.000 0 0
C3614 N6265 N6266 127.3 0.03 0.000 0.000 0 0
C3615 N6267 N6268 293.4 0.03 0.000 0.000 0 0
C3616 N6269 N6270 168.5 0.015 0.000 0.000 0 0
C3617 N6271 N6272 327.4 0.015 0.000 0.000 0 0
C3618 N6273 N6274 172.3 0.015 0.000 0.000 0 0
C3619 N6275 N6276 311.8 0.015 0.000 0.000 0 0
C3620 N6277 N6278 332.6 0.015 0.000 0.000 0 0
C3621 N6279 N6280 155.2 0.015 0.000 0.000 0 0
C3622 N6281 N6282 137.4 0.015 0.000 0.000 0 0
C3623 N6282 N6283 302.9 0.015 0.266 0.000 0 0
C3624 N6284 N6285 66.9 0.015 0.000 0.000 0 0
C3625 N6286 N6287 36.9 0.015 0.000 0.000 0 0
C3626 N6288 N6289 107.5 0.015 0.000 0.000 0 0
C3627 N6290 N6291 140.2 0.015 0.000 0.000 0 0
C3628 N6292 N6293 136.9 0.015 0.000 0.000 0 0
C3629 N6294 N6295 235.4 0.015 0.000 0.000 0 0
C3630 N6296 N6297 252.4 0.015 0.000 0.000 0 0
C3631 N6298 N6299 93.7 0.03 0.000 0.000 0 0
C3632 N6300 N6301 430.4 0.015 0.000 0.000 0 0
C3633 N6302 N6303 448.2 0.015 0.000 0.000 0 0
C3634 N6304 N6305 63.2 0.015 0.000 0.000 0 0
C3635 N6306 N6307 122.7 0.03 0.000 0.000 0 0
C3636 N6308 N6309 191.1 0.03 0.000 0.000 0 0
C3637 N6309 N6310 309.6 0.015 0.304 0.605 0 0
C3638 N6311 N6312 92.9 0.015 0.000 0.000 0 0
C3639 N6313 N6314 133.1 0.015 0.000 0.000 0 0
C3640 N6283 N6315 246.3 0.015 0.000 0.000 0 0
C3641 N6316 N6317 55.7 0.015 0.000 0.000 0 0
C3642 N6318 N6319 77.6 0.015 0.000 0.000 0 0
C3643 N6320 N6321 131.5 0.015 0.000 0.000 0 0
C3644 N6322 N6323 128.1 0.015 0.000 0.000 0 0
C3645 N6324 N6325 122.9 0.015 0.000 0.000 0 0
C3646 N6326 N6327 136.5 0.015 0.000 0.000 0 0
C3647 N6328 N6329 76.7 0.015 0.000 0.000 0 0
C3648 N6330 N6331 90.1 0.015 0.000 0.000 0 0
C3649 N6332 N6333 154.7 0.015 0.000 0.000 0 0
C3650 N6334 N6335 30.9 0.015 0.000 0.000 0 0
C3651 N6336 N6337 19.7 0.015 0.000 0.000 0 0
C3652 N6338 N6339 117.9 0.015 0.000 0.000 0 0
C3653 N6340 N6341 93.5 0.015 0.000 0.000 0 0
C3654 N6342 N6343 59.2 0.015 0.000 0.000 0 0
C3655 N6051 N6344 219.7 0.015 0.314 0.000 0 0
C3656 N6345 N6346 265.7 0.015 0.000 0.000 0 0
C3657 N6347 N6348 232.0 0.015 0.000 0.000 0 0
C3658 N6349 N6350 133.5 0.015 0.000 0.000 0 0
C3659 N6351 N6352 265.3 0.015 0.000 0.000 0 0
C3660 N6353 N6354 150.4 0.015 0.000 0.000 0 0
C3661 N6355 N6356 144.7 0.015 0.000 0.000 0 0
C3662 N6357 N6358 53.9 0.015 0.000 0.000 0 0
C3663 N6359 N6360 264.8 0.015 0.000 0.000 0 0
C3664 N6361 N6362 169.7 0.015 0.000 0.000 0 0
C3665 N6363 N6364 170.2 0.015 0.000 0.000 0 0
C3666 N6365 N6366 45.9 0.015 0.000 0.000 0 0
C3667 N6367 N6368 560.1 0.015 0.000 0.000 0 0
C3668 N6369 N6370 41.5 0.015 0.000 0.000 0 0
C3669 N6371 N6372 390.2 0.015 0.000 0.000 0 0
C3670 N6372 N6373 66.3 0.015 0.000 0.000 0 0
C3671 N6374 N6375 172.5 0.015 3.000 0.000 0 0
C3672 N6376 N6377 91.4 0.015 0.000 0.000 0 0
C3673 N6378 N6379 82.1 0.015 0.000 0.000 0 0
C3674 N6380 N6381 56.8 0.015 0.000 0.000 0 0
C3675 N6382 N6383 57.9 0.015 0.000 0.000 0 0
C3676 N6384 N6385 184.2 0.015 0.000 0.000 0 0
C3677 N6386 N6387 46.7 0.015 0.000 0.000 0 0
C3678 N6388 N6389 48.0 0.015 0.000 0.000 0 0
C3679 N6390 N6391 183.4 0.015 0.000 0.000 0 0
C3680 N6392 N6393 134.7 0.015 0.000 0.000 0 0
C3681 N6394 N6395 23.3 0.015 0.000 0.000 0 0
C3682 N6396 N6397 210.8 0.015 0.000 0.000 0 0
C3683 N6398 N6399 76.9 0.015 0.000 0.000 0 0
C3684 N6400 N6399 87.7 0.015 0.000 2.081 0 0
C3685 N6401 N6375 440.5 0.015 0.000 0.000 0 0
C3686 N6375 N6402 84.3 0.015 0.178 0.000 0 0
C3687 N6403 N6404 235.1 0.015 0.034 0.000 0 0
C3688 N6403 N6405 242.3 0.015 0.000 0.000 0 0
C3689 N6405 N6406 163.4 0.015 0.000 0.000 0 0
C3690 N6407 N6408 57.8 0.015 0.000 0.000 0 0
C3691 N6409 N6410 42.1 0.015 0.000 0.000 0 0
C3692 N6411 N6412 80.6 0.015 0.501 0.000 0 0
C3693 N6413 N6414 72.6 0.015 0.000 0.000 0 0
C3694 N6415 N6416 57.6 0.03 0.000 0.000 0 0
C3695 N6417 N6418 491.0 0.015 0.947 0.000 0 0
C3696 N6419 N6420 139.1 0.03 0.000 0.000 0 0
C3697 N6421 N6422 59.6 0.015 0.000 0.000 0 0
C3698 N6423 N6424 197.3 0.015 0.000 0.000 0 0
C3699 N6425 N6426 140.3 0.015 0.000 0.000 0 0
C3700 N6427 N6428 79.3 0.015 0.000 0.000 0 0
C3701 N6429 N6430 40.5 0.015 0.000 0.000 0 0
C3702 N6431 N6432 63.2 0.015 0.000 0.000 0 0
C3703 N6433 N6434 107.7 0.03 0.000 0.000 0 0
C3704 N6435 N6436 20.7 0.015 0.000 0.000 0 0
C3705 N6437 N6438 348.9 0.015 0.000 0.000 0 0
C3706 N6439 N6440 128.1 0.015 0.000 0.000 0 0
C3707 N6441 N6442 153.7 0.015 0.000 0.000 0 0
C3708 N6443 N6444 85.3 0.015 0.000 0.000 0 0
C3709 N6445 N6446 95.9 0.015 0.000 0.000 0 0
C3710 N6447 N6448 86.0 0.03 0.000 0.000 0 0
C3711 N6449 N6450 31.9 0.015 0.000 0.000 0 0
C3712 N6451 N6452 713.1 0.015 0.000 0.000 0 0
C3713 N6453 N6454 159.6 0.015 0.000 0.295 0 0
C3714 N6454 N6455 128.8 0.015 0.000 0.003 0 0
C3715 N2948 N2950 82.9 0.015 0.862 0.000 0 0
C3716 N6456 N6457 143.3 0.015 0.962 0.000 0 0
C3717 N6458 N6459 182.1 0.015 0.658 0.000 0 0
C3718 N6460 N6461 64.0 0.015 0.000 0.000 0 0
C3719 N6462 N6463 197.1 0.03 0.000 0.000 0 0
C3720 N6464 N6465 74.1 0.015 0.000 0.000 0 0
C3721 N6466 N6467 65.3 0.015 0.000 0.000 0 0
C3722 N6468 N6469 81.7 0.015 0.000 0.000 0 0
C3723 N6470 N6471 158.6 0.015 0.000 0.000 0 0
C3724 N6472 N6473 38.2 0.015 0.000 0.000 0 0
C3725 N6474 N6475 118.0 0.015 0.000 0.000 0 0
C3726 N6476 N6477 79.2 0.015 0.000 0.000 0 0
C3727 N6478 N6479 62.3 0.015 0.000 0.000 0 0
C3728 N6480 N6481 16.0 0.015 0.000 0.000 0 0
C3729 N6482 N6483 247.4 0.015 0.000 0.000 0 0
C3730 N6484 N6485 243.0 0.015 1.111 0.000 0 0
C3731 N6486 N6487 197.4 0.015 0.000 0.000 0 0
C3732 N6488 N6489 253.6 0.015 0.832 0.000 0 0
C3733 N6490 N2977 72.2 0.015 0.000 0.000 0 0
C3734 N6491 N6492 703.3 0.015 0.000 0.000 0 0
C3735 N3009 N6493 132.7 0.015 0.000 0.000 0 0
C3736 N6494 N6495 172.8 0.015 0.000 0.000 0 0
C3737 N6485 N6496 355.7 0.015 0.324 0.000 0 0
C3738 N6485 N6497 197.6 0.015 1.297 0.000 0 0
C3739 N6498 N6499 82.3 0.015 0.000 0.000 0 0
C3740 N6499 N6500 130.5 0.015 0.000 0.000 0 0
C3741 N6501 N6502 336.5 0.015 0.000 0.000 0 0
C3742 N6503 N6500 1013.2 0.015 0.000 0.000 0 0
C3743 N6504 N6505 283.3 0.015 0.000 0.000 0 0
C3744 N6506 N6507 166.0 0.015 0.000 0.265 0 0
C3745 N6508 N6507 131.6 0.015 0.000 0.000 0 0
C3746 N6509 N6510 180.7 0.015 0.000 0.000 0 0
C3747 N6510 N6511 128.9 0.015 0.000 0.000 0 0
C3748 N6512 N6513 94.3 0.015 0.000 0.000 0 0
C3749 N6513 N6514 100.7 0.015 0.000 0.000 0 0
C3750 N6515 N6516 95.6 0.015 0.000 0.000 0 0
C3751 N6517 N6518 84.5 0.015 0.000 0.000 0 0
C3752 N6519 N6520 120.4 0.015 0.000 0.000 0 0
C3753 N6521 N6522 42.8 0.015 0.000 0.000 0 0
C3754 N6523 N6524 60.8 0.015 0.000 0.000 0 0
C3755 N6525 N6526 202.2 0.015 0.000 0.000 0 0
C3756 N6526 N6527 134.3 0.015 0.000 0.000 0 0
C3757 N6528 N6529 136.1 0.015 0.000 0.415 0 0
C3758 N6530 N6529 159.3 0.015 0.000 0.000 0 0
C3759 N6529 N6531 176.2 0.015 0.916 0.000 0 0
C3760 N6531 N6532 50.5 0.015 2.706 0.000 0 0
C3761 N6533 N6534 26.5 0.015 0.000 0.000 0 0
C3762 N2554 N2553 231.7 0.015 1.691 0.000 0 0
C3763 N6535 N2555 227.3 0.015 0.000 0.000 0 0
C3764 N6339 N6536 101.3 0.03 0.017 0.000 0 0
C3765 N6333 N6537 15.3 0.015 0.675 0.000 0 0
C3766 N6343 N6051 37.3 0.015 0.150 0.314 0 0
C3767 N6373 N6374 41.4 0.015 0.000 0.000 0 0
C3768 N6408 N6411 51.0 0.015 0.439 0.000 0 0
C3769 N6538 N6417 91.2 0.015 0.000 0.000 0 0
C3770 N6426 N6539 127.7 0.015 3.094 0.000 0 0
C3771 N2949 N6456 82.0 0.015 0.148 0.000 0 0
C3772 N6455 N2948 49.8 0.015 0.000 0.035 0 0
C3773 N6459 N6458 69.8 0.015 0.658 0.000 0 0
C3774 N6310 N6457 286.6 0.015 0.000 1.233 0 0
C3775 N6492 N6540 148.4 0.015 0.000 0.000 0 0
C3776 N6541 N6484 201.4 0.015 0.000 0.000 0 0
C3777 N6541 N6488 178.5 0.015 0.045 0.000 0 0
C3778 N6542 N6382 26.6 0.015 0.000 0.000 0 0
C3779 N6543 N6544 117.4 0.015 0.000 0.000 0 0
C3780 N6545 N6546 49.4 0.015 0.000 0.000 0 0
C3781 N6547 N6302 56.5 0.015 0.000 0.000 0 0
C3782 N6497 N6548 161.9 0.015 0.973 0.000 0 0
C3783 N6404 N6549 63.2 0.015 0.000 0.000 0 0
C3784 N6550 N6551 213.8 0.015 1.418 0.000 0 0
C3785 N6552 N6553 347.2 0.015 0.000 0.000 0 0
C3786 N6554 N6555 208.7 0.015 0.000 0.000 0 0
C3787 N6556 N6557 742.3 0.015 0.000 0.000 0 0
C3788 N6558 N6559 130.1 0.015 0.000 0.000 0 0
C3789 N6560 N6561 625.8 0.015 0.000 0.000 0 0
C3790 N6562 N6563 282.1 0.015 0.000 0.000 0 0
C3791 N6564 N6565 257.6 0.015 0.000 0.000 0 0
C3792 N6566 N6567 378.9 0.015 0.000 0.000 0 0
C3793 N6568 N6569 902.9 0.015 0.000 0.000 0 0
C3794 N6570 N6571 282.1 0.015 0.000 0.000 0 0
C3795 N6572 N6573 814.9 0.015 0.000 0.000 0 0
C3796 N6574 N6575 158.1 0.015 0.000 0.000 0 0
C3797 N6576 N6577 60.7 0.015 0.000 0.000 0 0
C3798 N6578 N6579 26.6 0.015 0.000 0.000 0 0
C3799 N6580 N6581 165.5 0.015 0.000 0.000 0 0
C3800 N6582 N6583 158.1 0.015 0.000 0.000 0 0
C3801 N6584 N6585 661.7 0.015 0.000 0.000 0 0
C3802 N6586 N6587 288.1 0.015 0.000 0.000 0 0
C3803 N6588 N6589 446.4 0.015 0.000 0.000 0 0
C3804 N6590 N6591 88.1 0.015 0.000 0.000 0 0
C3805 N6592 N6593 203.1 0.015 0.000 0.000 0 0
C3806 N6594 N6595 100.7 0.015 0.000 0.000 0 0
C3807 N6596 N6597 216.2 0.015 0.000 0.000 0 0
C3808 N6598 N6599 442.0 0.015 0.000 0.000 0 0
C3809 N6600 N6601 195.4 0.015 0.000 0.000 0 0
C3810 N6602 N6601 225.6 0.015 0.000 0.066 0 0
C3811 N6603 N6604 2146.6 0.015 0.000 0.000 0 0
C3812 N6605 N6606 1158.8 0.015 0.000 0.000 0 0
C3813 N6607 N6608 206.9 0.015 0.000 0.000 0 0
C3814 N6609 N6610 132.9 0.015 0.000 0.218 0 0
C3815 N6610 N6611 224.5 0.015 0.000 0.000 0 0
C3816 N6612 N6613 67.8 0.015 0.571 0.000 0 0
C3817 N6614 N6615 88.7 0.015 0.000 0.000 0 0
C3818 N6615 N6612 157.5 0.015 0.965 0.000 0 0
C3819 N6616 N6550 90.2 0.015 0.000 0.000 0 0
C3820 N6617 N6618 520.0 0.015 0.000 0.000 0 0
C3821 N6619 N6620 805.0 0.015 0.000 0.000 0 0
C3822 N6621 N6622 315.0 0.015 0.000 0.000 0 0
C3823 N6623 N6624 115.0 0.015 0.000 0.000 0 0
C3824 N6625 N6626 260.0 0.015 0.000 0.000 0 0
C3825 N6627 N6628 115.0 0.015 0.000 0.000 0 0
C3826 N6628 N6629 120.0 0.015 0.000 0.000 0 0
C3827 N6630 N6631 140.0 0.015 0.000 0.000 0 0
C3828 N6632 N6633 150.0 0.015 0.000 0.000 0 0
C3829 N6634 N6635 350.0 0.03 0.000 0.000 0 0
C3830 N6636 N6637 225.0 0.015 0.000 0.000 0 0
C3831 N6638 N6639 260.0 0.03 0.000 0.000 0 0
C3832 N6640 N6641 120.0 0.03 0.000 0.000 0 0
C3833 N6642 N6643 2500.0 0.03 0.000 0.000 0 0
C3834 N6644 N6645 200.0 0.03 0.000 0.000 0 0
C3835 N6646 N6647 200.0 0.03 0.000 0.000 0 0
C3836 N6648 N6649 130.0 0.015 0.000 0.000 0 0
C3837 N6650 N6651 60.0 0.015 0.000 0.000 0 0
C3838 N6652 N6653 220.0 0.03 0.000 0.000 0 0
C3839 N6654 N6655 400.0 0.015 0.000 0.000 0 0
C3840 N6656 N6655 400.0 0.015 0.000 0.603 0 0
C3841 N6657 N6658 30.0 0.015 0.000 0.000 0 0
C3842 N6659 N6660 200.0 0.03 0.000 0.000 0 0
C3843 N6661 N6662 142.0 0.015 0.000 0.000 0 0
C3844 N6663 N6664 30.0 0.03 0.000 0.000 0 0
C3845 N6665 N6666 30.0 0.03 0.000 0.000 0 0
C3846 N6667 N6668 200.0 0.03 0.000 0.000 0 0
C3847 N6669 N6670 320.0 0.015 0.000 0.000 0 0
C3848 N6671 N6672 805.0 0.015 0.000 0.000 0 0
C3849 N6673 N6674 150.0 0.015 0.000 0.000 0 0
C3850 N6672 N6675 300.0 0.015 2.112 0.000 0 0
C3851 N6676 N6677 350.0 0.015 0.868 0.000 0 0
C3852 N6649 N6678 250.0 0.015 0.557 0.000 0 0
C3853 N6679 N6680 150.0 0.015 0.000 0.000 0 0
C3854 N6681 N6682 180.0 0.015 0.000 0.000 0 0
C3855 N6682 N6683 276.7 0.015 0.000 0.000 0 0
C3856 N6684 N6621 300.0 0.015 0.000 0.000 0 0
C3857 N6685 N6686 2500.0 0.03 0.000 0.000 0 0
C3858 N6687 N6676 155.0 0.015 0.000 0.000 0 0
C3859 N6688 N6689 85.0 0.015 0.000 0.000 0 0
C3860 N6690 N6655 90.0 0.015 0.000 0.151 0 0
C3861 N6691 N6692 200.0 0.03 0.000 1.952 0 0
C3862 N6693 N6694 320.0 0.015 0.000 0.000 0 0
C3863 N6695 N6696 320.0 0.015 0.000 0.000 0 0
C3864 N6646 N6692 200.0 0.03 0.225 0.000 0 0
C3865 N6697 N6698 80.0 0.03 0.000 0.000 0 0
C3866 N6699 N6700 230.0 0.03 0.000 0.468 0 0
C3867 N6701 N6702 453.0 0.015 0.000 0.000 0 0
C3868 N6703 N6704 220.0 0.015 0.000 0.000 0 0
C3869 N6705 N6706 240.0 0.015 0.000 0.000 0 0
C3870 N6707 N6708 180.0 0.015 0.000 0.000 0 0
C3871 N6709 N6710 120.0 0.015 0.000 0.000 0 0
C3872 N6711 N6712 110.0 0.015 0.000 2.599 0 0
C3873 N6713 N6714 300.0 0.015 0.000 0.000 0 0
C3874 N6715 N6716 300.0 0.015 0.000 0.000 0 0
C3875 N6717 N6718 350.0 0.015 0.000 0.000 0 0
C3876 N6719 N6720 315.0 0.015 0.000 0.000 0 0
C3877 N6721 N6722 360.0 0.015 0.000 0.000 0 0
C3878 N6723 N6724 122.0 0.03 0.000 0.000 0 0
C3879 N6725 N6726 160.0 0.015 0.000 0.000 0 0
C3880 N6727 N6728 46.0 0.03 0.000 0.000 0 0
C3881 N6729 N6730 310.0 0.015 0.000 0.000 0 0
C3882 N6731 N6732 300.0 0.015 0.000 0.000 0 0
C3883 N6726 N6733 90.0 0.015 0.516 0.000 0 0
C3884 N6734 N6735 225.0 0.015 0.000 0.000 0 0
C3885 N6736 N6737 60.0 0.015 0.000 0.000 0 0
C3886 N6738 N6739 200.0 0.015 0.000 0.000 0 0
C3887 N6740 N6741 210.0 0.015 0.151 0.000 0 0
C3888 N6742 N6743 210.0 0.015 0.000 0.000 0 0
C3889 N6744 N6745 102.0 0.015 0.000 0.000 0 0
C3890 N6746 N6747 130.0 0.015 0.000 0.000 0 0
C3891 N6748 N6749 225.0 0.015 0.000 0.000 0 0
C3892 N6750 N6751 708.0 0.015 0.000 0.000 0 0
C3893 N6752 N6753 708.0 0.03 0.000 0.000 0 0
C3894 N6754 N6755 500.0 0.015 0.000 0.000 0 0
C3895 N6756 N6757 550.0 0.015 0.000 0.000 0 0
C3896 N6758 N6759 140.0 0.015 0.000 0.000 0 0
C3897 N6760 N6712 160.0 0.015 0.000 0.000 0 0
C3898 N6712 N6761 160.0 0.015 2.599 0.000 0 0
C3899 N6700 N6762 185.0 0.015 0.955 0.000 0 0
C3900 N6762 N6763 185.0 0.015 1.444 0.000 0 0
C3901 N6764 N6765 160.0 0.03 0.000 0.000 0 0
C3902 N6766 N6700 180.0 0.015 0.600 0.000 0 0
C3903 N6765 N6766 160.0 0.015 0.000 0.000 0 0
C3904 N6767 N6768 100.0 0.015 0.000 0.000 0 0
C3905 N6769 N6770 102.0 0.03 0.000 0.000 0 0
C3906 N6771 N6740 90.0 0.015 0.000 0.000 0 0
C3907 N6740 N6772 145.0 0.015 0.000 0.000 0 0
C3908 N6702 N6773 453.0 0.015 0.070 0.000 0 0
C3909 N6774 N6775 30.0 0.015 0.000 0.000 0 0
C3910 N6775 N6776 115.0 0.015 0.000 0.000 0 0
C3911 N6777 N6778 130.0 0.015 0.000 0.000 0 0
C3912 N6704 N6777 135.0 0.015 0.000 0.000 0 0
C3913 N6779 N6780 360.0 0.015 0.000 0.000 0 0
C3914 N6780 N6781 220.0 0.015 0.000 0.000 0 0
C3915 N6782 N6783 400.0 0.03 0.000 0.000 0 0
C3916 N6784 N6785 55.1 0.015 0.000 0.000 0 0
C3917 N6786 N6787 429.8 0.015 0.000 0.000 0 0
C3918 N6788 N6789 256.2 0.015 0.000 0.000 0 0
C3919 N6790 N6791 366.8 0.015 0.000 0.000 0 0
C3920 N6792 N6793 225.2 0.015 0.000 0.000 0 0
C3921 N6793 N6794 371.1 0.015 0.000 0.000 0 0
C3922 N6795 N6796 162.0 0.015 0.000 0.000 0 0
C3923 N6797 N6798 172.7 0.015 0.000 0.000 0 0
C3924 N6799 N6800 132.8 0.015 0.000 0.000 0 0
C3925 N6800 N6801 108.5 0.015 0.227 0.000 0 0
C3926 N6802 N6803 124.2 0.015 0.000 0.000 0 0
C3927 N6804 N6805 62.0 0.015 0.000 0.000 0 0
C3928 N6806 N6807 166.4 0.015 0.000 0.000 0 0
C3929 N6794 N6808 178.0 0.015 0.000 0.000 0 0
C3930 N6809 N6810 28.3 0.015 0.000 0.000 0 0
C3931 N6811 N6812 189.9 0.015 0.000 0.000 0 0
C3932 N6813 N6814 169.7 0.015 0.000 0.000 0 0
C3933 N6815 N6816 298.7 0.015 0.000 0.000 0 0
C3934 N6817 N6818 206.1 0.015 0.000 0.000 0 0
C3935 N6819 N6820 185.1 0.015 0.000 0.000 0 0
C3936 N6821 N6822 258.2 0.015 0.000 0.000 0 0
C3937 N6823 N6824 134.1 0.015 1.332 0.000 0 0
C3938 N6825 N6826 205.3 0.015 0.000 0.000 0 0
C3939 N6827 N6828 123.4 0.015 0.000 0.000 0 0
C3940 N6829 N6830 325.4 0.015 0.000 0.000 0 0
C3941 N6831 N6791 342.5 0.015 0.000 0.201 0 0
C3942 N6832 N6833 382.0 0.015 0.000 0.000 0 0
C3943 N6834 N6835 621.9 0.015 0.000 0.000 0 0
C3944 N6836 N6837 273.9 0.015 0.000 0.000 0 0
C3945 N6838 N6839 174.3 0.015 0.000 0.000 0 0
C3946 N6838 N6840 203.6 0.015 0.108 0.000 0 0
C3947 N6841 N6818 86.3 0.015 0.000 0.000 0 0
C3948 N6818 N6842 172.5 0.015 0.000 0.000 0 0
C3949 N6842 N6843 98.1 0.015 0.387 0.000 0 0
C3950 N6843 N6844 66.1 0.015 0.000 0.000 0 0
C3951 N6845 N6846 173.1 0.015 0.000 0.000 0 0
C3952 N6847 N6848 98.5 0.015 0.000 0.000 0 0
C3953 N6849 N6850 28.1 0.015 0.000 0.000 0 0
C3954 N6851 N6823 435.5 0.015 0.000 0.000 0 0
C3955 N6823 N6852 230.6 0.015 0.793 0.000 0 0
C3956 N6853 N6854 697.9 0.015 0.000 0.000 0 0
C3957 N6854 N6792 504.6 0.015 0.071 0.000 0 0
C3958 N6834 N6855 154.6 0.015 0.000 0.000 0 0
C3959 N6856 N6857 368.4 0.015 0.543 0.000 0 0
C3960 N6783 N6858 921.2 0.015 1.310 0.000 0 0
C3961 N6858 N6859 355.7 0.015 1.040 0.000 0 0
C3962 N6855 N6856 258.3 0.015 0.000 0.000 0 0
C3963 N6860 N6861 378.5 0.015 0.000 0.000 0 0
C3964 N6862 N6863 1055.6 0.015 0.000 0.517 0 0
C3965 N6864 N6865 195.8 0.015 0.000 0.000 0 0
C3966 N6866 N6867 191.9 0.015 0.840 0.000 0 0
C3967 N6868 N6869 533.0 0.015 0.000 0.000 0 0
C3968 N6870 N6871 95.1 0.015 0.000 0.000 0 0
C3969 N6872 N6873 493.4 0.015 0.000 0.000 0 0
C3970 N6874 N6875 446.0 0.015 0.000 0.000 0 0
C3971 N6875 N6876 102.1 0.015 0.274 0.000 0 0
C3972 N6876 N6877 167.0 0.015 0.968 0.000 0 0
C3973 N6878 N6879 425.7 0.015 0.000 0.144 0 0
C3974 N6880 N6881 55.2 0.015 1.962 0.000 0 0
C3975 N6882 N6883 254.7 0.015 0.000 0.000 0 0
C3976 N6884 N6885 163.8 0.015 0.000 0.000 0 0
C3977 N6886 N6887 175.0 0.015 0.000 0.000 0 0
C3978 N6888 N6889 181.9 0.015 0.000 0.000 0 0
C3979 N6889 N6890 54.5 0.015 0.952 0.000 0 0
C3980 N6891 N6892 42.5 0.015 0.000 0.000 0 0
C3981 N6893 N6894 512.4 0.015 0.000 0.000 0 0
C3982 N6895 N6896 173.3 0.015 0.000 0.000 0 0
C3983 N6897 N6898 102.9 0.015 0.000 0.000 0 0
C3984 N6899 N6900 229.1 0.015 0.000 0.000 0 0
C3985 N6896 N6901 183.1 0.015 0.029 0.000 0 0
C3986 N6902 N6903 58.0 0.015 0.000 0.000 0 0
C3987 N6904 N6905 409.3 0.015 0.000 0.000 0 0
C3988 N6906 N6907 131.3 0.015 0.000 0.000 0 0
C3989 N6908 N6909 105.6 0.015 0.000 0.000 0 0
C3990 N6910 N6911 59.0 0.015 0.000 0.000 0 0
C3991 N6912 N6913 282.4 0.015 0.000 0.000 0 0
C3992 N6914 N6915 352.9 0.015 0.000 0.000 0 0
C3993 N6916 N6917 467.5 0.015 0.000 0.000 0 0
C3994 N6863 N6918 193.8 0.015 0.000 0.000 0 0
C3995 N6919 N6920 112.3 0.015 0.000 0.000 0 0
C3996 N6920 N6866 106.9 0.015 0.465 0.000 0 0
C3997 N6921 N6922 639.4 0.015 0.000 0.000 0 0
C3998 N6923 N6918 507.0 0.015 0.000 0.362 0 0
C3999 N6924 N6925 583.0 0.015 0.000 0.000 0 0
C4000 N6926 N6927 89.1 0.015 0.000 0.000 0 0
C4001 N6928 N6929 337.5 0.015 0.000 0.000 0 0
C4002 N6879 N6880 180.6 0.015 0.000 0.000 0 0
C4003 N6930 N6931 116.3 0.015 0.000 0.000 0 0
C4004 N6931 N6932 53.9 0.015 0.000 0.000 0 0
C4005 N6932 N6933 354.8 0.015 0.284 0.000 0 0
C4006 N6934 N6935 447.0 0.015 0.000 0.000 0 0
C4007 N6936 N6937 45.1 0.015 0.000 0.000 0 0
C4008 N6937 N6938 124.4 0.015 0.092 0.000 0 0
C4009 N6939 N6940 106.2 0.015 0.000 0.000 0 0
C4010 N6941 N6942 126.0 0.015 0.000 0.000 0 0
C4011 N6943 N6944 106.6 0.015 0.000 0.000 0 0
C4012 N6942 N6945 301.6 0.015 0.000 0.000 0 0
C4013 N6946 N6947 90.3 0.015 0.000 0.000 0 0
C4014 N6948 N6949 80.7 0.015 0.000 0.000 0 0
C4015 N6950 N6951 109.4 0.015 0.000 0.000 0 0
C4016 N6952 N6953 82.9 0.015 0.000 0.000 0 0
C4017 N6954 N6955 210.0 0.015 0.000 0.000 0 0
C4018 N6956 N6957 264.0 0.015 0.000 0.000 0 0
C4019 N6958 N6959 284.2 0.015 0.000 0.000 0 0
C4020 N6960 N6961 99.3 0.015 0.000 0.000 0 0
C4021 N6961 N6962 239.9 0.015 2.630 0.000 0 0
C4022 N6962 N6963 233.7 0.015 0.389 0.000 0 0
C4023 N6964 N6965 262.1 0.015 0.000 0.000 0 0
C4024 N3293 N6966 123.5 0.015 0.869 0.000 0 0
C4025 N6967 N6968 84.1 0.015 0.000 0.000 0 0
C4026 N6969 N6970 189.1 0.015 0.000 0.000 0 0
C4027 N6971 N6972 126.3 0.015 0.000 0.000 0 0
C4028 N6973 N6974 114.4 0.015 0.000 0.000 0 0
C4029 N6974 N6975 46.5 0.015 0.000 0.000 0 0
C4030 N6976 N6977 361.5 0.015 0.000 0.000 0 0
C4031 N6978 N6979 20.0 0.015 0.000 0.000 0 0
C4032 N6980 N6981 79.4 0.015 0.000 0.000 0 0
C4033 N6982 N6983 70.0 0.015 0.000 0.000 0 0
C4034 N6984 N6985 48.3 0.015 0.000 0.000 0 0
C4035 N6986 N6987 696.8 0.015 0.000 0.000 0 0
C4036 N6988 N6989 535.1 0.015 0.000 0.000 0 0
C4037 N6990 N6991 14.1 0.015 0.000 0.000 0 0
C4038 N6992 N6993 99.1 0.015 0.000 0.000 0 0
C4039 N6994 N6995 361.8 0.015 0.000 0.000 0 0
C4040 N6996 N6997 78.4 0.015 0.000 0.000 0 0
C4041 N6998 N6999 141.3 0.015 0.000 0.000 0 0
C4042 N7000 N7001 81.5 0.015 0.000 0.000 0 0
C4043 N6970 N6989 256.0 0.015 1.522 0.390 0 0
C4044 N7002 N7003 85.0 0.015 0.000 0.000 0 0
C4045 N7004 N7005 391.6 0.015 0.000 0.000 0 0
C4046 N7006 N7007 91.2 0.015 0.000 0.000 0 0
C4047 N7007 N7008 308.7 0.015 2.127 0.000 0 0
C4048 N7009 N7010 86.8 0.015 0.000 0.000 0 0
C4049 N7011 N7012 241.2 0.015 0.000 0.163 0 0
C4050 N7010 N7013 42.6 0.015 0.475 0.000 0 0
C4051 N7014 N7015 62.8 0.015 0.000 0.000 0 0
C4052 N7016 N7017 138.5 0.015 0.000 0.000 0 0
C4053 N7017 N7018 103.8 0.015 0.000 0.000 0 0
C4054 N7019 N7020 140.5 0.015 0.000 0.000 0 0
C4055 N7018 N7021 86.7 0.015 0.074 0.000 0 0
C4056 N7021 N7022 76.1 0.015 0.074 0.000 0 0
C4057 N7022 N7023 151.9 0.015 0.698 0.000 0 0
C4058 N7024 N7025 65.7 0.015 0.000 0.000 0 0
C4059 N7026 N7027 69.8 0.015 0.000 0.000 0 0
C4060 N7028 N7029 52.8 0.015 0.000 0.000 0 0
C4061 N7030 N7031 116.6 0.015 0.000 0.000 0 0
C4062 N7032 N7033 742.3 0.015 0.000 0.000 0 0
C4063 N7034 N7035 122.5 0.015 0.000 0.000 0 0
C4064 N7036 N7037 202.3 0.015 0.000 0.000 0 0
C4065 N7038 N7039 62.2 0.015 0.000 0.000 0 0
C4066 N7040 N7041 102.6 0.015 0.000 0.000 0 0
C4067 N7042 N7043 137.2 0.015 0.000 0.000 0 0
C4068 N7044 N7045 423.2 0.015 0.000 0.000 0 0
C4069 N7046 N7047 198.1 0.015 0.000 0.000 0 0
C4070 N7048 N7049 24.3 0.015 0.000 0.000 0 0
C4071 N7050 N7051 74.8 0.015 0.000 0.000 0 0
C4072 N7052 N7053 347.2 0.015 0.000 0.000 0 0
C4073 N7054 N7055 168.1 0.015 0.000 0.000 0 0
C4074 N7056 N7057 563.9 0.015 0.000 0.000 0 0
C4075 N7058 N7059 65.2 0.015 0.000 0.000 0 0
C4076 N7060 N7061 149.0 0.015 0.000 0.000 0 0
C4077 N7062 N7063 126.0 0.015 0.000 0.000 0 0
C4078 N7064 N7065 213.4 0.015 0.000 0.000 0 0
C4079 N7066 N7067 135.8 0.015 0.000 0.000 0 0
C4080 N7031 N7068 176.3 0.03 1.738 0.000 0 0
C4081 N7069 N7070 87.0 0.015 0.000 0.000 0 0
C4082 N7071 N7072 288.4 0.015 0.000 0.000 0 0
C4083 N7073 N7068 166.1 0.015 0.000 1.738 0 0
C4084 N7074 N7075 93.3 0.015 0.000 0.000 0 0
C4085 N7075 N7076 71.8 0.015 0.000 0.000 0 0
C4086 N7012 N7009 40.5 0.015 0.000 0.110 0 0
C4087 N7031 N7077 22.9 0.015 0.000 0.000 0 0
C4088 N7023 N7078 64.8 0.015 0.698 0.000 0 0
C4089 N7079 N7080 85.0 0.015 0.000 0.000 0 0
C4090 N7081 N7082 63.1 0.015 0.000 0.000 0 0
C4091 N7083 N7084 66.8 0.015 0.000 0.000 0 0
C4092 N7084 N7085 239.8 0.03 0.000 0.000 0 0
C4093 N7086 N7085 118.8 0.015 0.000 0.000 0 0
C4094 N7087 N7088 97.1 0.015 0.000 0.000 0 0
C4095 N7089 N7090 494.2 0.015 0.000 1.981 0 0
C4096 N7090 N7091 81.1 0.015 0.000 0.000 0 0
C4097 N7092 N7093 373.1 0.015 0.000 0.000 0 0
C4098 N7094 N7095 40.0 0.015 0.000 0.000 0 0
C4099 N7096 N7097 87.1 0.015 0.000 0.000 0 0
C4100 N7098 N7099 132.3 0.015 0.000 0.000 0 0
C4101 N7100 N7101 313.2 0.015 0.000 0.000 0 0
C4102 N7102 N7103 524.0 0.015 0.000 0.000 0 0
C4103 N7104 N7105 487.9 0.015 0.000 0.000 0 0
C4104 N7106 N7107 140.1 0.015 0.000 0.281 0 0
C4105 N7107 N7108 147.5 0.015 0.000 0.000 0 0
C4106 N7109 N7110 533.9 0.015 0.000 0.000 0 0
C4107 N7111 N7112 127.6 0.03 0.000 0.000 0 0
C4108 N7112 N7113 69.1 0.015 0.295 0.000 0 0
C4109 N7114 N7115 9.3 0.015 0.000 0.000 0 0
C4110 N7116 N7117 293.0 0.015 0.000 0.000 0 0
C4111 N7118 N7119 120.3 0.015 0.000 0.000 0 0
C4112 N7120 N7121 125.6 0.015 0.000 0.000 0 0
C4113 N7122 N7123 290.7 0.015 0.000 0.000 0 0
C4114 N7124 N7125 119.5 0.015 0.000 0.000 0 0
C4115 N7125 N7126 154.8 0.03 0.000 0.000 0 0
C4116 N7127 N7128 382.0 0.015 0.000 0.000 0 0
C4117 N7129 N7130 117.8 0.015 0.000 0.000 0 0
C4118 N7131 N7132 68.1 0.015 0.000 0.000 0 0
C4119 N7105 N7133 292.6 0.015 0.103 0.000 0 0
C4120 N7134 N7135 205.5 0.015 0.080 0.000 0 0
C4121 N7136 N7137 262.6 0.015 0.000 0.000 0 0
C4122 N7137 N7138 327.6 0.03 0.000 0.000 0 0
C4123 N7139 N7140 37.4 0.03 0.000 0.000 0 0
C4124 N7140 N7141 343.1 0.015 0.000 0.000 0 0
C4125 N7142 N7143 54.2 0.015 0.000 0.000 0 0
C4126 N7143 N7087 124.1 0.015 0.000 0.531 0 0
C4127 N7133 N7134 87.9 0.015 0.080 0.000 0 0
C4128 N7144 N7109 217.0 0.03 0.000 0.000 0 0

[XSECTIONS]
C0 RECT_CLOSED 0.900 0.900 0 0 1
C1 RECT_CLOSED 0.600 0.750 0 0 1
C2 RECT_CLOSED 0.780 0.780 0 0 1
C3 RECT_CLOSED 1.200 1.200 0 0 1
C4 RECT_CLOSED 0.900 0.900 0 0 1
C5 RECT_CLOSED 0.900 0.900 0 0 1
C6 RECT_CLOSED 0.900 0.900 0 0 1
C7 RECT_CLOSED 0.820 0.820 0 0 1
C8 RECT_CLOSED 1.200 1.400 0 0 1
C9 RECT_CLOSED 1.050 1.050 0 0 1
C10 RECT_CLOSED 1.200 1.600 0 0 1
C11 RECT_CLOSED 0.900 0.900 0 0 1
C12 RECT_CLOSED 0.750 0.750 0 0 1
C13 RECT_CLOSED 0.990 0.990 0 0 1
C14 RECT_CLOSED 0.611 0.611 0 0 1
C15 RECT_CLOSED 1.080 1.080 0 0 1
C16 RECT_CLOSED 0.888 0.888 0 0 1
C17 RECT_CLOSED 0.595 0.595 0 0 1
C18 RECT_CLOSED 0.666 0.666 0 0 1
C19 RECT_CLOSED 1.101 1.101 0 0 1
C20 RECT_CLOSED 0.610 0.610 0 0 1
C21 RECT_CLOSED 1.231 1.231 0 0 1
C22 RECT_CLOSED 0.720 0.720 0 0 1
C23 RECT_CLOSED 0.955 0.955 0 0 1
C24 RECT_CLOSED 1.100 1.100 0 0 1
C25 RECT_CLOSED 0.664 0.664 0 0 1
C26 RECT_CLOSED 0.910 0.910 0 0 1
C27 RECT_CLOSED 0.996 0.996 0 0 1
C28 RECT_CLOSED 1.770 1.770 0 0 1
C29 RECT_CLOSED 1.623 1.623 0 0 1
C30 RECT_CLOSED 1.068 1.068 0 0 1
C31 RECT_CLOSED 0.670 0.670 0 0 1
C32 RECT_CLOSED 0.646 0.646 0 0 1
C33 RECT_CLOSED 0.646 0.646 0 0 1
C34 RECT_CLOSED 0.690 0.690 0 0 1
C35 RECT_CLOSED 1.800 1.800 0 0 1
C36 RECT_CLOSED 1.940 1.940 0 0 1
C37 RECT_CLOSED 1.030 1.030 0 0 1
C38 RECT_CLOSED 0.910 0.910 0 0 1
C39 RECT_CLOSED 1.280 1.280 0 0 1
C40 RECT_CLOSED 1.310 1.310 0 0 1
C41 RECT_CLOSED 1.250 1.250 0 0 1
C42 RECT_CLOSED 0.985 0.985 0 0 1
C43 RECT_CLOSED 1.190 1.190 0 0 1
C44 RECT_CLOSED 1.240 1.240 0 0 1
C45 RECT_CLOSED 0.640 0.640 0 0 1
C46 RECT_CLOSED 0.440 0.440 0 0 1
C47 RECT_CLOSED 1.032 1.032 0 0 1
C48 RECT_CLOSED 1.075 1.075 0 0 1
C49 RECT_CLOSED 0.957 0.957 0 0 1
C50 RECT_CLOSED 1.379 1.379 0 0 1
C51 RECT_CLOSED 0.590 0.590 0 0 1
C52 RECT_CLOSED 1.423 1.423 0 0 1
C53 RECT_CLOSED 1.251 1.251 0 0 1
C54 RECT_CLOSED 0.630 0.630 0 0 1
C55 RECT_CLOSED 0.841 0.841 0 0 1
C56 RECT_CLOSED 1.225 1.225 0 0 1
C57 RECT_CLOSED 0.493 0.493 0 0 1
C58 RECT_CLOSED 0.641 0.641 0 0 1
C59 RECT_CLOSED 1.054 1.054 0 0 1
C60 RECT_CLOSED 0.373 0.373 0 0 1
C61 RECT_CLOSED 0.500 0.500 0 0 1
C62 RECT_CLOSED 0.562 0.562 0 0 1
C63 RECT_CLOSED 0.718 0.718 0 0 1
C64 RECT_CLOSED 0.683 0.683 0 0 1
C65 RECT_CLOSED 0.737 0.737 0 0 1
C66 RECT_CLOSED 0.538 0.538 0 0 1
C67 RECT_CLOSED 0.618 0.618 0 0 1
C68 RECT_CLOSED 0.530 0.530 0 0 1
C69 RECT_CLOSED 0.550 0.550 0 0 1
C70 RECT_CLOSED 0.620 0.620 0 0 1
C71 RECT_CLOSED 1.174 1.174 0 0 1
C72 RECT_CLOSED 0.633 0.633 0 0 1
C73 RECT_CLOSED 0.685 0.685 0 0 1
C74 RECT_CLOSED 0.899 0.899 0 0 1
C75 RECT_CLOSED 0.900 0.900 0 0 1
C76 RECT_CLOSED 1.156 1.156 0 0 1
C77 RECT_CLOSED 0.588 0.588 0 0 1
C78 RECT_CLOSED 0.512 0.512 0 0 1
C79 RECT_CLOSED 0.699 0.699 0 0 1
C80 RECT_CLOSED 0.734 0.734 0 0 1
C81 RECT_CLOSED 0.349 0.349 0 0 1
C82 RECT_CLOSED 0.664 0.664 0 0 1
C83 RECT_CLOSED 1.130 1.130 0 0 1
C84 RECT_CLOSED 0.590 0.590 0 0 1
C85 RECT_CLOSED 0.736 0.736 0 0 1
C86 RECT_CLOSED 0.797 0.797 0 0 1
C87 RECT_CLOSED 0.684 0.684 0 0 1
C88 RECT_CLOSED 0.947 0.947 0 0 1
C89 RECT_CLOSED 0.930 0.930 0 0 1
C90 RECT_CLOSED 1.060 1.060 0 0 1
C91 RECT_CLOSED 1.290 1.290 0 0 1
C92 RECT_CLOSED 1.320 1.320 0 0 1
C93 RECT_CLOSED 0.974 0.974 0 0 1
C94 RECT_CLOSED 0.990 0.990 0 0 1
C95 RECT_CLOSED 1.036 1.036 0 0 1
C96 RECT_CLOSED 0.573 0.573 0 0 1
C97 RECT_CLOSED 0.627 0.627 0 0 1
C98 RECT_CLOSED 0.750 0.750 0 0 1
C99 RECT_CLOSED 1.352 1.352 0 0 1
C100 RECT_CLOSED 0.739 0.739 0 0 1
C101 RECT_CLOSED 0.780 0.780 0 0 1
C102 RECT_CLOSED 0.859 0.859 0 0 1
C103 RECT_CLOSED 0.513 0.513 0 0 1
C104 RECT_CLOSED 0.805 0.805 0 0 1
C105 RECT_CLOSED 0.734 0.734 0 0 1
C106 RECT_CLOSED 0.636 0.636 0 0 1
C107 RECT_CLOSED 0.997 0.997 0 0 1
C108 RECT_CLOSED 1.348 1.348 0 0 1
C109 RECT_CLOSED 2.080 2.080 0 0 1
C110 RECT_CLOSED 1.480 1.480 0 0 1
C111 RECT_CLOSED 0.729 0.729 0 0 1
C112 RECT_CLOSED 0.594 0.594 0 0 1
C113 RECT_CLOSED 3.483 3.483 0 0 1
C114 RECT_CLOSED 0.677 0.677 0 0 1
C115 RECT_CLOSED 0.441 0.441 0 0 1
C116 RECT_CLOSED 1.065 1.065 0 0 1
C117 RECT_CLOSED 1.160 1.160 0 0 1
C118 RECT_CLOSED 0.800 0.800 0 0 1
C119 RECT_CLOSED 1.530 1.530 0 0 1
C120 RECT_CLOSED 1.610 1.610 0 0 1
C121 RECT_CLOSED 2.140 2.140 0 0 1
C122 RECT_CLOSED 1.040 1.040 0 0 1
C123 RECT_CLOSED 1.370 1.370 0 0 1
C124 RECT_CLOSED 1.310 1.310 0 0 1
C125 RECT_CLOSED 1.330 1.330 0 0 1
C126 RECT_CLOSED 1.450 1.450 0 0 1
C127 RECT_CLOSED 1.900 1.900 0 0 1
C128 RECT_CLOSED 1.220 1.220 0 0 1
C129 RECT_CLOSED 1.460 1.460 0 0 1
C130 RECT_CLOSED 1.450 1.450 0 0 1
C131 RECT_CLOSED 1.350 1.350 0 0 1
C132 RECT_CLOSED 1.040 1.040 0 0 1
C133 RECT_CLOSED 1.330 1.330 0 0 1
C134 RECT_CLOSED 1.390 1.390 0 0 1
C135 RECT_CLOSED 1.780 1.780 0 0 1
C136 RECT_CLOSED 1.550 1.550 0 0 1
C137 RECT_CLOSED 0.930 0.930 0 0 1
C138 RECT_CLOSED 1.540 1.540 0 0 1
C139 RECT_CLOSED 1.340 1.340 0 0 1
C140 RECT_CLOSED 2.170 2.170 0 0 1
C141 RECT_CLOSED 1.240 1.240 0 0 1
C142 RECT_CLOSED 1.030 1.030 0 0 1
C143 RECT_CLOSED 1.500 1.500 0 0 1
C144 RECT_CLOSED 1.450 1.450 0 0 1
C145 RECT_CLOSED 0.850 0.850 0 0 1
C146 RECT_CLOSED 1.830 1.830 0 0 1
C147 RECT_CLOSED 1.260 1.260 0 0 1
C148 RECT_CLOSED 1.960 1.960 0 0 1
C149 RECT_CLOSED 2.140 2.140 0 0 1
C150 RECT_CLOSED 1.040 1.040 0 0 1
C151 RECT_CLOSED 1.090 1.090 0 0 1
C152 RECT_CLOSED 1.080 1.080 0 0 1
C153 RECT_CLOSED 1.310 1.310 0 0 1
C154 RECT_CLOSED 1.290 1.290 0 0 1
C155 RECT_CLOSED 1.310 1.310 0 0 1
C156 RECT_CLOSED 1.600 1.600 0 0 1
C157 RECT_CLOSED 1.120 1.120 0 0 1
C158 RECT_CLOSED 1.500 1.500 0 0 1
C159 RECT_CLOSED 1.270 1.270 0 0 1
C160 RECT_CLOSED 0.800 0.800 0 0 1
C161 RECT_CLOSED 1.170 1.170 0 0 1
C162 RECT_CLOSED 1.500 1.500 0 0 1
C163 RECT_CLOSED 1.360 1.360 0 0 1
C164 RECT_CLOSED 1.120 1.120 0 0 1
C165 RECT_CLOSED 1.010 1.010 0 0 1
C166 RECT_CLOSED 1.090 1.090 0 0 1
C167 RECT_CLOSED 1.220 1.220 0 0 1
C168 RECT_CLOSED 1.540 1.540 0 0 1
C169 RECT_CLOSED 1.100 1.100 0 0 1
C170 RECT_CLOSED 1.840 1.840 0 0 1
C171 RECT_CLOSED 1.200 1.200 0 0 1
C172 RECT_CLOSED 1.550 1.550 0 0 1
C173 RECT_CLOSED 1.000 1.000 0 0 1
C174 RECT_CLOSED 1.390 1.390 0 0 1
C175 RECT_CLOSED 1.780 1.780 0 0 1
C176 RECT_CLOSED 1.550 1.550 0 0 1
C177 RECT_CLOSED 1.550 1.550 0 0 1
C178 RECT_CLOSED 2.170 2.170 0 0 1
C179 RECT_CLOSED 2.160 2.160 0 0 1
C180 RECT_CLOSED 2.700 2.700 0 0 1
C181 RECT_CLOSED 1.730 1.730 0 0 1
C182 RECT_CLOSED 1.380 1.380 0 0 1
C183 RECT_CLOSED 1.070 1.070 0 0 1
C184 RECT_CLOSED 1.420 1.420 0 0 1
C185 RECT_CLOSED 3.160 3.160 0 0 1
C186 RECT_CLOSED 1.830 1.830 0 0 1
C187 RECT_CLOSED 1.350 1.350 0 0 1
C188 RECT_CLOSED 1.040 1.040 0 0 1
C189 RECT_CLOSED 1.750 1.750 0 0 1
C190 RECT_CLOSED 1.400 1.400 0 0 1
C191 RECT_CLOSED 1.420 1.420 0 0 1
C192 RECT_CLOSED 1.030 1.030 0 0 1
C193 RECT_CLOSED 1.270 1.270 0 0 1
C194 RECT_CLOSED 2.140 2.140 0 0 1
C195 RECT_CLOSED 1.260 1.260 0 0 1
C196 RECT_CLOSED 1.330 1.330 0 0 1
C197 RECT_CLOSED 1.330 1.330 0 0 1
C198 RECT_CLOSED 1.370 1.370 0 0 1
C199 RECT_CLOSED 1.210 1.210 0 0 1
C200 RECT_CLOSED 1.120 1.120 0 0 1
C201 RECT_CLOSED 1.110 1.110 0 0 1
C202 RECT_CLOSED 1.410 1.410 0 0 1
C203 RECT_CLOSED 0.750 0.750 0 0 1
C204 RECT_CLOSED 0.950 0.950 0 0 1
C205 RECT_CLOSED 0.750 0.750 0 0 1
C206 RECT_CLOSED 1.050 1.050 0 0 1
C207 RECT_CLOSED 0.950 0.950 0 0 1
C208 RECT_CLOSED 0.750 0.750 0 0 1
C209 RECT_CLOSED 0.750 0.750 0 0 1
C210 RECT_CLOSED 1.050 1.050 0 0 1
C211 RECT_CLOSED 0.700 0.700 0 0 1
C212 RECT_CLOSED 2.050 2.050 0 0 1
C213 RECT_CLOSED 1.230 1.230 0 0 1
C214 RECT_CLOSED 0.840 0.840 0 0 1
C215 RECT_CLOSED 1.100 1.100 0 0 1
C216 RECT_CLOSED 0.920 0.920 0 0 1
C217 RECT_CLOSED 0.890 0.890 0 0 1
C218 RECT_CLOSED 0.930 0.930 0 0 1
C219 RECT_CLOSED 0.970 0.970 0 0 1
C220 RECT_CLOSED 1.020 1.020 0 0 1
C221 RECT_CLOSED 0.800 0.800 0 0 1
C222 RECT_CLOSED 1.060 1.060 0 0 1
C223 RECT_CLOSED 0.840 0.840 0 0 1
C224 RECT_CLOSED 1.050 1.050 0 0 1
C225 RECT_CLOSED 0.900 0.900 0 0 1
C226 RECT_CLOSED 1.260 1.260 0 0 1
C227 RECT_CLOSED 1.090 1.090 0 0 1
C228 RECT_CLOSED 0.920 0.920 0 0 1
C229 RECT_CLOSED 1.180 1.180 0 0 1
C230 RECT_CLOSED 1.340 1.340 0 0 1
C231 RECT_CLOSED 0.910 0.910 0 0 1
C232 RECT_CLOSED 1.080 1.080 0 0 1
C233 RECT_CLOSED 0.860 0.860 0 0 1
C234 RECT_CLOSED 1.230 1.230 0 0 1
C235 RECT_CLOSED 1.430 1.430 0 0 1
C236 RECT_CLOSED 1.280 1.280 0 0 1
C237 RECT_CLOSED 1.120 1.120 0 0 1
C238 RECT_CLOSED 0.770 0.770 0 0 1
C239 RECT_CLOSED 1.180 1.180 0 0 1
C240 RECT_CLOSED 0.960 0.960 0 0 1
C241 RECT_CLOSED 0.870 0.870 0 0 1
C242 RECT_CLOSED 1.080 1.080 0 0 1
C243 RECT_CLOSED 0.950 0.950 0 0 1
C244 RECT_CLOSED 0.920 0.920 0 0 1
C245 RECT_CLOSED 1.040 1.040 0 0 1
C246 RECT_CLOSED 0.730 0.730 0 0 1
C247 RECT_CLOSED 0.730 0.730 0 0 1
C248 RECT_CLOSED 1.230 1.230 0 0 1
C249 RECT_CLOSED 1.220 1.220 0 0 1
C250 RECT_CLOSED 1.180 1.180 0 0 1
C251 RECT_CLOSED 0.940 0.940 0 0 1
C252 RECT_CLOSED 0.680 0.680 0 0 1
C253 RECT_CLOSED 1.450 1.450 0 0 1
C254 RECT_CLOSED 0.920 0.920 0 0 1
C255 RECT_CLOSED 1.000 1.000 0 0 1
C256 RECT_CLOSED 1.100 1.100 0 0 1
C257 RECT_CLOSED 0.990 0.990 0 0 1
C258 RECT_CLOSED 1.150 1.150 0 0 1
C259 RECT_CLOSED 1.440 1.440 0 0 1
C260 RECT_CLOSED 0.810 0.810 0 0 1
C261 RECT_CLOSED 1.080 1.080 0 0 1
C262 RECT_CLOSED 0.740 0.740 0 0 1
C263 RECT_CLOSED 0.910 0.910 0 0 1
C264 RECT_CLOSED 1.120 1.120 0 0 1
C265 RECT_CLOSED 1.140 1.140 0 0 1
C266 RECT_CLOSED 0.840 0.840 0 0 1
C267 RECT_CLOSED 0.950 0.950 0 0 1
C268 RECT_CLOSED 0.960 0.960 0 0 1
C269 RECT_CLOSED 0.930 0.930 0 0 1
C270 RECT_CLOSED 1.510 1.510 0 0 1
C271 RECT_CLOSED 0.950 0.950 0 0 1
C272 RECT_CLOSED 1.350 1.350 0 0 1
C273 RECT_CLOSED 1.140 1.140 0 0 1
C274 RECT_CLOSED 0.770 0.770 0 0 1
C275 RECT_CLOSED 1.030 1.030 0 0 1
C276 RECT_CLOSED 0.940 0.940 0 0 1
C277 RECT_CLOSED 0.870 0.870 0 0 1
C278 RECT_CLOSED 0.930 0.930 0 0 1
C279 RECT_CLOSED 0.670 0.670 0 0 1
C280 RECT_CLOSED 0.710 0.710 0 0 1
C281 RECT_CLOSED 0.800 0.800 0 0 1
C282 RECT_CLOSED 1.170 1.170 0 0 1
C283 RECT_CLOSED 0.880 0.880 0 0 1
C284 RECT_CLOSED 0.760 0.760 0 0 1
C285 RECT_CLOSED 1.060 1.060 0 0 1
C286 RECT_CLOSED 1.010 1.010 0 0 1
C287 RECT_CLOSED 0.810 0.810 0 0 1
C288 RECT_CLOSED 0.910 0.910 0 0 1
C289 RECT_CLOSED 0.820 0.820 0 0 1
C290 RECT_CLOSED 1.020 1.020 0 0 1
C291 RECT_CLOSED 0.790 0.790 0 0 1
C292 RECT_CLOSED 1.150 1.150 0 0 1
C293 RECT_CLOSED 1.060 1.060 0 0 1
C294 RECT_CLOSED 1.520 1.520 0 0 1
C295 RECT_CLOSED 1.510 1.510 0 0 1
C296 RECT_CLOSED 0.920 0.920 0 0 1
C297 RECT_CLOSED 1.040 1.040 0 0 1
C298 RECT_CLOSED 1.340 1.340 0 0 1
C299 RECT_CLOSED 1.170 1.170 0 0 1
C300 RECT_CLOSED 0.930 0.930 0 0 1
C301 RECT_CLOSED 1.080 1.080 0 0 1
C302 RECT_CLOSED 1.050 1.050 0 0 1
C303 RECT_CLOSED 1.020 1.020 0 0 1
C304 RECT_CLOSED 1.180 1.180 0 0 1
C305 RECT_CLOSED 1.270 1.270 0 0 1
C306 RECT_CLOSED 0.760 0.760 0 0 1
C307 RECT_CLOSED 1.310 1.310 0 0 1
C308 RECT_CLOSED 0.880 0.880 0 0 1
C309 RECT_CLOSED 1.060 1.060 0 0 1
C310 RECT_CLOSED 0.950 0.950 0 0 1
C311 RECT_CLOSED 0.850 0.850 0 0 1
C312 RECT_CLOSED 1.160 1.160 0 0 1
C313 RECT_CLOSED 0.850 0.850 0 0 1
C314 RECT_CLOSED 1.100 1.100 0 0 1
C315 RECT_CLOSED 1.220 1.220 0 0 1
C316 RECT_CLOSED 0.760 0.760 0 0 1
C317 RECT_CLOSED 1.600 1.600 0 0 1
C318 RECT_CLOSED 1.500 1.500 0 0 1
C319 RECT_CLOSED 0.750 0.750 0 0 1
C320 RECT_CLOSED 0.800 0.800 0 0 1
C321 RECT_CLOSED 0.950 0.950 0 0 1
C322 RECT_CLOSED 0.900 0.900 0 0 1
C323 RECT_CLOSED 1.100 1.100 0 0 1
C324 RECT_CLOSED 1.100 1.100 0 0 1
C325 RECT_CLOSED 0.580 0.580 0 0 1
C326 RECT_CLOSED 1.050 1.700 0 0 1
C327 RECT_CLOSED 0.710 0.710 0 0 1
C328 RECT_CLOSED 0.900 0.900 0 0 1
C329 RECT_CLOSED 0.950 0.950 0 0 1
C330 RECT_CLOSED 1.150 1.150 0 0 1
C331 RECT_CLOSED 1.050 1.050 0 0 1
C332 RECT_CLOSED 0.950 0.950 0 0 1
C333 RECT_CLOSED 0.850 0.850 0 0 1
C334 RECT_CLOSED 0.750 0.750 0 0 1
C335 RECT_CLOSED 0.600 0.600 0 0 1
C336 RECT_CLOSED 1.050 3.050 0 0 1
C337 RECT_CLOSED 0.750 0.750 0 0 1
C338 RECT_CLOSED 0.900 0.900 0 0 1
C339 RECT_CLOSED 0.780 0.780 0 0 1
C340 RECT_CLOSED 0.650 0.650 0 0 1
C341 RECT_CLOSED 0.650 0.650 0 0 1
C342 RECT_CLOSED 1.180 1.180 0 0 1
C343 RECT_CLOSED 0.790 0.790 0 0 1
C344 RECT_CLOSED 1.660 1.660 0 0 1
C345 RECT_CLOSED 1.110 1.110 0 0 1
C346 RECT_CLOSED 1.660 1.660 0 0 1
C347 RECT_CLOSED 1.300 1.300 0 0 1
C348 RECT_CLOSED 0.640 0.640 0 0 1
C349 RECT_CLOSED 0.920 0.920 0 0 1
C350 RECT_CLOSED 1.260 1.260 0 0 1
C351 RECT_CLOSED 1.100 1.100 0 0 1
C352 RECT_CLOSED 0.790 0.790 0 0 1
C353 RECT_CLOSED 0.860 0.860 0 0 1
C354 RECT_CLOSED 0.910 0.910 0 0 1
C355 RECT_CLOSED 1.220 1.220 0 0 1
C356 RECT_CLOSED 0.640 0.640 0 0 1
C357 RECT_CLOSED 0.880 0.880 0 0 1
C358 RECT_CLOSED 1.000 1.000 0 0 1
C359 RECT_CLOSED 0.920 0.920 0 0 1
C360 RECT_CLOSED 0.940 0.940 0 0 1
C361 RECT_CLOSED 1.230 1.230 0 0 1
C362 RECT_CLOSED 0.860 0.860 0 0 1
C363 RECT_CLOSED 0.980 0.980 0 0 1
C364 RECT_CLOSED 0.900 0.900 0 0 1
C365 RECT_CLOSED 1.010 1.010 0 0 1
C366 RECT_CLOSED 1.010 1.010 0 0 1
C367 RECT_CLOSED 1.140 1.140 0 0 1
C368 RECT_CLOSED 0.880 0.880 0 0 1
C369 RECT_CLOSED 0.830 0.830 0 0 1
C370 RECT_CLOSED 1.130 1.130 0 0 1
C371 RECT_CLOSED 1.170 1.170 0 0 1
C372 RECT_CLOSED 1.060 1.060 0 0 1
C373 RECT_CLOSED 0.940 0.940 0 0 1
C374 RECT_CLOSED 1.010 1.010 0 0 1
C375 RECT_CLOSED 0.970 0.970 0 0 1
C376 RECT_CLOSED 1.290 1.290 0 0 1
C377 RECT_CLOSED 1.010 1.010 0 0 1
C378 RECT_CLOSED 1.030 1.030 0 0 1
C379 RECT_CLOSED 0.940 0.940 0 0 1
C380 RECT_CLOSED 1.030 1.030 0 0 1
C381 RECT_CLOSED 1.110 1.110 0 0 1
C382 RECT_CLOSED 1.320 1.320 0 0 1
C383 RECT_CLOSED 0.940 0.940 0 0 1
C384 RECT_CLOSED 0.900 0.900 0 0 1
C385 RECT_CLOSED 1.240 1.240 0 0 1
C386 RECT_CLOSED 1.170 1.170 0 0 1
C387 RECT_CLOSED 0.870 0.870 0 0 1
C388 RECT_CLOSED 1.040 1.040 0 0 1
C389 RECT_CLOSED 0.830 0.830 0 0 1
C390 RECT_CLOSED 1.020 1.020 0 0 1
C391 RECT_CLOSED 0.450 0.450 0 0 1
C392 RECT_CLOSED 0.860 0.860 0 0 1
C393 RECT_CLOSED 0.920 0.920 0 0 1
C394 RECT_CLOSED 1.050 1.050 0 0 1
C395 RECT_CLOSED 0.850 0.850 0 0 1
C396 RECT_CLOSED 0.990 0.990 0 0 1
C397 RECT_CLOSED 0.960 0.960 0 0 1
C398 RECT_CLOSED 1.090 1.090 0 0 1
C399 RECT_CLOSED 1.170 1.170 0 0 1
C400 RECT_CLOSED 1.460 1.460 0 0 1
C401 RECT_CLOSED 2.380 2.380 0 0 1
C402 RECT_CLOSED 0.960 0.960 0 0 1
C403 RECT_CLOSED 0.950 0.950 0 0 1
C404 RECT_CLOSED 0.860 0.860 0 0 1
C405 RECT_CLOSED 0.930 0.930 0 0 1
C406 RECT_CLOSED 0.680 0.680 0 0 1
C407 RECT_CLOSED 1.140 1.140 0 0 1
C408 RECT_CLOSED 1.150 1.150 0 0 1
C409 RECT_CLOSED 1.080 1.080 0 0 1
C410 RECT_CLOSED 1.340 1.340 0 0 1
C411 RECT_CLOSED 0.870 0.870 0 0 1
C412 RECT_CLOSED 1.170 1.170 0 0 1
C413 RECT_CLOSED 1.210 1.210 0 0 1
C414 RECT_CLOSED 0.450 0.450 0 0 1
C415 RECT_CLOSED 0.980 0.980 0 0 1
C416 RECT_CLOSED 1.270 1.270 0 0 1
C417 RECT_CLOSED 1.520 1.520 0 0 1
C418 RECT_CLOSED 0.980 0.980 0 0 1
C419 RECT_CLOSED 1.150 1.150 0 0 1
C420 RECT_CLOSED 0.920 0.920 0 0 1
C421 RECT_CLOSED 1.170 1.170 0 0 1
C422 RECT_CLOSED 0.910 0.910 0 0 1
C423 RECT_CLOSED 1.030 1.030 0 0 1
C424 RECT_CLOSED 1.360 1.360 0 0 1
C425 RECT_CLOSED 0.810 0.810 0 0 1
C426 RECT_CLOSED 0.660 0.660 0 0 1
C427 RECT_CLOSED 0.650 0.650 0 0 1
C428 RECT_CLOSED 0.650 0.650 0 0 1
C429 RECT_CLOSED 0.800 0.800 0 0 1
C430 RECT_CLOSED 1.050 1.050 0 0 1
C431 RECT_CLOSED 0.860 0.860 0 0 1
C432 RECT_CLOSED 1.340 1.340 0 0 1
C433 RECT_CLOSED 0.820 0.820 0 0 1
C434 RECT_CLOSED 1.450 1.450 0 0 1
C435 RECT_CLOSED 0.950 0.950 0 0 1
C436 RECT_CLOSED 0.890 0.890 0 0 1
C437 RECT_CLOSED 0.420 0.420 0 0 1
C438 RECT_CLOSED 0.690 0.690 0 0 1
C439 RECT_CLOSED 0.810 0.810 0 0 1
C440 RECT_CLOSED 1.150 1.150 0 0 1
C441 RECT_CLOSED 0.900 0.900 0 0 1
C442 RECT_CLOSED 0.840 0.840 0 0 1
C443 RECT_CLOSED 0.870 0.870 0 0 1
C444 RECT_CLOSED 0.820 0.820 0 0 1
C445 RECT_CLOSED 0.990 0.990 0 0 1
C446 RECT_CLOSED 0.950 0.950 0 0 1
C447 RECT_CLOSED 1.200 1.200 0 0 1
C448 RECT_CLOSED 0.950 0.950 0 0 1
C449 RECT_CLOSED 1.050 1.050 0 0 1
C450 RECT_CLOSED 1.750 1.750 0 0 1
C451 RECT_CLOSED 1.150 1.150 0 0 1
C452 RECT_CLOSED 0.950 0.950 0 0 1
C453 RECT_CLOSED 0.800 0.800 0 0 1
C454 RECT_CLOSED 0.900 0.900 0 0 1
C455 RECT_CLOSED 0.900 0.900 0 0 1
C456 RECT_CLOSED 0.900 0.900 0 0 1
C457 RECT_CLOSED 0.900 0.900 0 0 1
C458 RECT_CLOSED 0.700 0.700 0 0 1
C459 RECT_CLOSED 1.150 1.150 0 0 1
C460 RECT_CLOSED 1.000 1.000 0 0 1
C461 RECT_CLOSED 0.750 0.750 0 0 1
C462 RECT_CLOSED 1.200 1.200 0 0 1
C463 RECT_CLOSED 1.050 1.050 0 0 1
C464 RECT_CLOSED 1.050 1.050 0 0 1
C465 RECT_CLOSED 0.950 0.950 0 0 1
C466 RECT_CLOSED 0.750 0.750 0 0 1
C467 RECT_CLOSED 0.760 0.760 0 0 1
C468 RECT_CLOSED 0.920 0.920 0 0 1
C469 RECT_CLOSED 1.090 1.090 0 0 1
C470 RECT_CLOSED 0.760 0.760 0 0 1
C471 RECT_CLOSED 1.480 1.480 0 0 1
C472 RECT_CLOSED 1.550 1.550 0 0 1
C473 RECT_CLOSED 0.920 0.920 0 0 1
C474 RECT_CLOSED 1.430 1.430 0 0 1
C475 RECT_CLOSED 0.930 0.930 0 0 1
C476 RECT_CLOSED 0.860 0.860 0 0 1
C477 RECT_CLOSED 0.700 0.700 0 0 1
C478 RECT_CLOSED 0.990 0.990 0 0 1
C479 RECT_CLOSED 0.680 0.680 0 0 1
C480 RECT_CLOSED 0.670 0.670 0 0 1
C481 RECT_CLOSED 0.770 0.770 0 0 1
C482 RECT_CLOSED 0.960 0.960 0 0 1
C483 RECT_CLOSED 0.970 0.970 0 0 1
C484 RECT_CLOSED 0.930 0.930 0 0 1
C485 RECT_CLOSED 1.570 1.570 0 0 1
C486 RECT_CLOSED 0.700 0.700 0 0 1
C487 RECT_CLOSED 0.830 0.830 0 0 1
C488 RECT_CLOSED 0.760 0.760 0 0 1
C489 RECT_CLOSED 1.130 1.130 0 0 1
C490 RECT_CLOSED 1.100 1.100 0 0 1
C491 RECT_CLOSED 0.500 0.500 0 0 1
C492 RECT_CLOSED 1.700 1.700 0 0 1
C493 RECT_CLOSED 1.100 1.100 0 0 1
C494 RECT_CLOSED 1.200 1.200 0 0 1
C495 RECT_CLOSED 1.200 1.200 0 0 1
C496 RECT_CLOSED 1.230 1.230 0 0 1
C497 RECT_CLOSED 0.900 0.900 0 0 1
C498 RECT_CLOSED 1.100 1.100 0 0 1
C499 RECT_CLOSED 0.900 0.900 0 0 1
C500 RECT_CLOSED 0.900 0.900 0 0 1
C501 RECT_CLOSED 0.900 0.900 0 0 1
C502 RECT_CLOSED 0.900 0.900 0 0 1
C503 RECT_CLOSED 1.200 1.200 0 0 1
C504 RECT_CLOSED 0.900 0.900 0 0 1
C505 RECT_CLOSED 1.010 1.010 0 0 1
C506 RECT_CLOSED 1.200 1.200 0 0 1
C507 RECT_CLOSED 1.200 1.200 0 0 1
C508 RECT_CLOSED 1.100 1.100 0 0 1
C509 RECT_CLOSED 1.100 1.100 0 0 1
C510 RECT_CLOSED 0.830 0.830 0 0 1
C511 RECT_CLOSED 1.100 1.100 0 0 1
C512 RECT_CLOSED 1.100 1.100 0 0 1
C513 RECT_CLOSED 1.140 1.140 0 0 1
C514 RECT_CLOSED 0.800 0.800 0 0 1
C515 RECT_CLOSED 1.500 1.500 0 0 1
C516 RECT_CLOSED 1.010 1.010 0 0 1
C517 RECT_CLOSED 0.900 0.900 0 0 1
C518 RECT_CLOSED 1.200 1.200 0 0 1
C519 RECT_CLOSED 1.200 1.200 0 0 1
C520 RECT_CLOSED 1.200 1.200 0 0 1
C521 RECT_CLOSED 0.900 0.900 0 0 1
C522 RECT_CLOSED 1.010 1.010 0 0 1
C523 RECT_CLOSED 0.900 0.900 0 0 1
C524 RECT_CLOSED 1.010 1.010 0 0 1
C525 RECT_CLOSED 0.630 0.630 0 0 1
C526 RECT_CLOSED 0.990 0.990 0 0 1
C527 RECT_CLOSED 0.710 0.710 0 0 1
C528 RECT_CLOSED 0.600 0.600 0 0 1
C529 RECT_CLOSED 1.110 1.110 0 0 1
C530 RECT_CLOSED 0.760 0.760 0 0 1
C531 RECT_CLOSED 0.680 0.680 0 0 1
C532 RECT_CLOSED 1.200 1.200 0 0 1
C533 RECT_CLOSED 1.160 1.160 0 0 1
C534 RECT_CLOSED 1.200 1.200 0 0 1
C535 RECT_CLOSED 1.200 1.200 0 0 1
C536 RECT_CLOSED 1.000 1.000 0 0 1
C537 RECT_CLOSED 0.450 0.450 0 0 1
C538 RECT_CLOSED 0.500 0.500 0 0 1
C539 RECT_CLOSED 0.950 0.950 0 0 1
C540 RECT_CLOSED 0.800 0.800 0 0 1
C541 RECT_CLOSED 0.700 0.700 0 0 1
C542 RECT_CLOSED 1.450 1.450 0 0 1
C543 RECT_CLOSED 1.450 1.450 0 0 1
C544 RECT_CLOSED 1.040 1.040 0 0 1
C545 RECT_CLOSED 0.950 0.950 0 0 1
C546 RECT_CLOSED 1.040 1.040 0 0 1
C547 RECT_CLOSED 1.170 1.170 0 0 1
C548 RECT_CLOSED 1.140 1.140 0 0 1
C549 RECT_CLOSED 1.150 1.150 0 0 1
C550 RECT_CLOSED 1.050 1.050 0 0 1
C551 RECT_CLOSED 1.020 1.020 0 0 1
C552 RECT_CLOSED 1.500 1.500 0 0 1
C553 RECT_CLOSED 1.200 1.200 0 0 1
C554 RECT_CLOSED 1.200 1.200 0 0 1
C555 RECT_CLOSED 0.900 0.900 0 0 1
C556 RECT_CLOSED 1.100 1.100 0 0 1
C557 RECT_CLOSED 0.750 0.750 0 0 1
C558 RECT_CLOSED 1.070 1.070 0 0 1
C559 RECT_CLOSED 0.900 0.900 0 0 1
C560 RECT_CLOSED 0.900 0.900 0 0 1
C561 RECT_CLOSED 0.900 0.900 0 0 1
C562 RECT_CLOSED 0.800 0.800 0 0 1
C563 RECT_CLOSED 1.010 1.010 0 0 1
C564 RECT_CLOSED 0.900 0.900 0 0 1
C565 RECT_CLOSED 0.900 0.900 0 0 1
C566 RECT_CLOSED 0.850 0.850 0 0 1
C567 RECT_CLOSED 0.800 0.800 0 0 1
C568 RECT_CLOSED 0.900 0.900 0 0 1
C569 RECT_CLOSED 0.600 0.600 0 0 1
C570 RECT_CLOSED 0.900 0.900 0 0 1
C571 RECT_CLOSED 0.800 0.800 0 0 1
C572 RECT_CLOSED 0.800 0.800 0 0 1
C573 RECT_CLOSED 1.030 1.030 0 0 1
C574 RECT_CLOSED 0.550 0.550 0 0 1
C575 RECT_CLOSED 0.900 0.900 0 0 1
C576 RECT_CLOSED 0.900 0.900 0 0 1
C577 RECT_CLOSED 0.900 0.900 0 0 1
C578 RECT_CLOSED 0.600 0.600 0 0 1
C579 RECT_CLOSED 1.250 1.250 0 0 1
C580 RECT_CLOSED 1.450 1.450 0 0 1
C581 RECT_CLOSED 0.700 0.700 0 0 1
C582 RECT_CLOSED 0.800 0.800 0 0 1
C583 RECT_CLOSED 1.140 1.140 0 0 1
C584 RECT_CLOSED 0.910 0.910 0 0 1
C585 RECT_CLOSED 0.970 0.970 0 0 1
C586 RECT_CLOSED 0.800 0.800 0 0 1
C587 RECT_CLOSED 0.910 0.910 0 0 1
C588 RECT_CLOSED 0.740 0.740 0 0 1
C589 RECT_CLOSED 0.950 0.950 0 0 1
C590 RECT_CLOSED 1.080 1.080 0 0 1
C591 RECT_OPEN 1.100 1.100 0 0 1
C592 RECT_CLOSED 1.360 1.360 0 0 1
C593 RECT_CLOSED 0.800 0.800 0 0 1
C594 RECT_CLOSED 1.500 1.500 0 0 1
C595 RECT_CLOSED 0.900 0.900 0 0 1
C596 RECT_CLOSED 0.900 0.900 0 0 1
C597 RECT_CLOSED 0.900 0.900 0 0 1
C598 RECT_CLOSED 0.900 0.900 0 0 1
C599 RECT_CLOSED 1.200 1.200 0 0 1
C600 RECT_CLOSED 1.200 1.200 0 0 1
C601 RECT_CLOSED 1.200 1.200 0 0 1
C602 RECT_CLOSED 0.900 0.900 0 0 1
C603 RECT_CLOSED 1.200 1.200 0 0 1
C604 RECT_CLOSED 1.100 1.100 0 0 1
C605 RECT_CLOSED 1.100 1.100 0 0 1
C606 RECT_CLOSED 0.900 0.900 0 0 1
C607 RECT_CLOSED 0.900 0.900 0 0 1
C608 RECT_CLOSED 0.720 0.720 0 0 1
C609 RECT_CLOSED 0.800 0.800 0 0 1
C610 RECT_CLOSED 0.900 0.900 0 0 1
C611 RECT_CLOSED 1.150 1.150 0 0 1
C612 RECT_CLOSED 1.100 1.100 0 0 1
C613 RECT_CLOSED 0.900 0.900 0 0 1
C614 RECT_CLOSED 1.200 1.200 0 0 1
C615 RECT_CLOSED 1.200 1.200 0 0 1
C616 RECT_CLOSED 0.900 0.900 0 0 1
C617 RECT_CLOSED 1.200 1.200 0 0 1
C618 RECT_CLOSED 1.100 1.100 0 0 1
C619 RECT_CLOSED 1.200 1.200 0 0 1
C620 RECT_CLOSED 1.070 1.070 0 0 1
C621 RECT_CLOSED 0.900 0.900 0 0 1
C622 RECT_CLOSED 0.900 0.900 0 0 1
C623 RECT_CLOSED 0.900 0.900 0 0 1
C624 RECT_CLOSED 0.800 0.800 0 0 1
C625 RECT_CLOSED 0.950 0.950 0 0 1
C626 RECT_CLOSED 0.900 0.900 0 0 1
C627 RECT_CLOSED 0.900 0.900 0 0 1
C628 RECT_CLOSED 1.010 1.010 0 0 1
C629 RECT_CLOSED 0.900 0.900 0 0 1
C630 RECT_CLOSED 0.720 0.720 0 0 1
C631 RECT_CLOSED 0.900 0.900 0 0 1
C632 RECT_CLOSED 0.900 0.900 0 0 1
C633 RECT_CLOSED 0.450 0.450 0 0 1
C634 RECT_CLOSED 1.200 1.200 0 0 1
C635 RECT_CLOSED 0.800 0.800 0 0 1
C636 RECT_CLOSED 0.800 0.800 0 0 1
C637 RECT_CLOSED 1.060 1.060 0 0 1
C638 RECT_CLOSED 1.030 1.030 0 0 1
C639 RECT_CLOSED 0.940 0.940 0 0 1
C640 RECT_CLOSED 0.900 0.900 0 0 1
C641 RECT_CLOSED 0.500 0.500 0 0 1
C642 RECT_CLOSED 0.900 0.900 0 0 1
C643 RECT_CLOSED 0.600 0.600 0 0 1
C644 RECT_CLOSED 0.800 0.800 0 0 1
C645 RECT_CLOSED 0.900 0.900 0 0 1
C646 RECT_CLOSED 0.900 0.900 0 0 1
C647 RECT_CLOSED 0.800 0.800 0 0 1
C648 RECT_CLOSED 0.530 0.530 0 0 1
C649 RECT_CLOSED 0.650 0.650 0 0 1
C650 RECT_CLOSED 0.750 0.750 0 0 1
C651 RECT_CLOSED 1.040 1.040 0 0 1
C652 RECT_CLOSED 1.080 1.080 0 0 1
C653 RECT_CLOSED 0.950 0.950 0 0 1
C654 RECT_CLOSED 1.040 1.040 0 0 1
C655 RECT_CLOSED 0.950 0.950 0 0 1
C656 RECT_CLOSED 1.040 1.040 0 0 1
C657 RECT_CLOSED 1.040 1.040 0 0 1
C658 RECT_CLOSED 1.200 1.200 0 0 1
C659 RECT_CLOSED 0.700 0.700 0 0 1
C660 RECT_CLOSED 0.850 0.850 0 0 1
C661 RECT_CLOSED 0.750 0.750 0 0 1
C662 RECT_CLOSED 0.540 0.540 0 0 1
C663 RECT_CLOSED 0.600 0.600 0 0 1
C664 RECT_CLOSED 0.620 0.620 0 0 1
C665 RECT_CLOSED 1.300 1.300 0 0 1
C666 RECT_CLOSED 1.200 1.200 0 0 1
C667 RECT_CLOSED 0.900 0.900 0 0 1
C668 RECT_CLOSED 0.700 0.700 0 0 1
C669 RECT_CLOSED 1.200 1.200 0 0 1
C670 RECT_CLOSED 0.820 0.820 0 0 1
C671 RECT_CLOSED 1.190 1.190 0 0 1
C672 RECT_CLOSED 1.110 1.110 0 0 1
C673 RECT_CLOSED 1.020 1.020 0 0 1
C674 RECT_CLOSED 1.130 1.130 0 0 1
C675 RECT_CLOSED 1.220 1.220 0 0 1
C676 RECT_CLOSED 1.490 1.490 0 0 1
C677 RECT_CLOSED 0.680 0.680 0 0 1
C678 RECT_CLOSED 0.890 0.890 0 0 1
C679 RECT_CLOSED 1.030 1.030 0 0 1
C680 RECT_CLOSED 0.690 0.690 0 0 1
C681 RECT_CLOSED 1.260 1.260 0 0 1
C682 RECT_CLOSED 0.630 0.630 0 0 1
C683 RECT_CLOSED 0.700 0.700 0 0 1
C684 RECT_CLOSED 0.890 0.890 0 0 1
C685 RECT_CLOSED 1.190 1.190 0 0 1
C686 RECT_CLOSED 1.570 1.570 0 0 1
C687 RECT_CLOSED 0.680 0.680 0 0 1
C688 RECT_CLOSED 0.590 0.590 0 0 1
C689 RECT_CLOSED 1.230 1.230 0 0 1
C690 RECT_CLOSED 1.160 1.160 0 0 1
C691 RECT_CLOSED 1.080 1.080 0 0 1
C692 RECT_CLOSED 0.750 0.750 0 0 1
C693 RECT_CLOSED 1.340 1.340 0 0 1
C694 RECT_CLOSED 0.540 0.540 0 0 1
C695 RECT_CLOSED 0.910 0.910 0 0 1
C696 RECT_CLOSED 0.840 0.840 0 0 1
C697 RECT_CLOSED 1.070 1.070 0 0 1
C698 RECT_CLOSED 1.100 1.100 0 0 1
C699 RECT_CLOSED 0.730 0.730 0 0 1
C700 RECT_CLOSED 0.810 0.810 0 0 1
C701 RECT_CLOSED 1.010 1.010 0 0 1
C702 RECT_CLOSED 1.040 1.040 0 0 1
C703 RECT_CLOSED 0.900 0.900 0 0 1
C704 RECT_CLOSED 1.010 1.010 0 0 1
C705 RECT_CLOSED 1.010 1.010 0 0 1
C706 RECT_CLOSED 1.150 1.150 0 0 1
C707 RECT_CLOSED 1.450 1.450 0 0 1
C708 RECT_CLOSED 1.200 1.200 0 0 1
C709 RECT_CLOSED 0.900 0.900 0 0 1
C710 RECT_CLOSED 1.200 1.200 0 0 1
C711 RECT_CLOSED 0.900 0.900 0 0 1
C712 RECT_CLOSED 0.900 0.900 0 0 1
C713 RECT_CLOSED 1.200 1.200 0 0 1
C714 RECT_CLOSED 1.010 1.010 0 0 1
C715 RECT_CLOSED 1.200 1.200 0 0 1
C716 RECT_CLOSED 1.080 1.080 0 0 1
C717 RECT_CLOSED 1.450 1.450 0 0 1
C718 RECT_CLOSED 1.200 1.200 0 0 1
C719 RECT_CLOSED 1.200 1.200 0 0 1
C720 RECT_CLOSED 0.600 0.600 0 0 1
C721 RECT_CLOSED 1.200 1.200 0 0 1
C722 RECT_CLOSED 1.200 1.200 0 0 1
C723 RECT_CLOSED 1.300 1.300 0 0 1
C724 RECT_CLOSED 1.100 1.100 0 0 1
C725 RECT_CLOSED 0.900 0.900 0 0 1
C726 RECT_CLOSED 0.900 0.900 0 0 1
C727 RECT_CLOSED 0.600 0.600 0 0 1
C728 RECT_CLOSED 0.400 0.400 0 0 1
C729 RECT_CLOSED 0.400 0.400 0 0 1
C730 RECT_CLOSED 1.100 1.100 0 0 1
C731 RECT_CLOSED 0.900 0.900 0 0 1
C732 RECT_CLOSED 0.600 0.600 0 0 1
C733 RECT_CLOSED 1.100 1.100 0 0 1
C734 RECT_CLOSED 0.800 0.800 0 0 1
C735 RECT_CLOSED 1.200 1.200 0 0 1
C736 RECT_CLOSED 0.900 0.900 0 0 1
C737 RECT_CLOSED 0.600 0.600 0 0 1
C738 RECT_CLOSED 0.500 0.500 0 0 1
C739 RECT_CLOSED 0.700 0.700 0 0 1
C740 RECT_CLOSED 1.350 1.350 0 0 1
C741 RECT_CLOSED 1.070 1.070 0 0 1
C742 RECT_CLOSED 1.200 1.200 0 0 1
C743 RECT_CLOSED 1.100 1.100 0 0 1
C744 RECT_CLOSED 1.070 1.070 0 0 1
C745 RECT_CLOSED 1.100 1.100 0 0 1
C746 RECT_CLOSED 1.500 1.500 0 0 1
C747 RECT_CLOSED 1.230 1.230 0 0 1
C748 RECT_CLOSED 0.900 0.900 0 0 1
C749 RECT_CLOSED 0.900 0.900 0 0 1
C750 RECT_CLOSED 0.900 0.900 0 0 1
C751 RECT_CLOSED 0.900 0.900 0 0 1
C752 RECT_CLOSED 0.900 0.900 0 0 1
C753 RECT_CLOSED 0.700 0.700 0 0 1
C754 RECT_CLOSED 1.200 1.200 0 0 1
C755 RECT_CLOSED 1.200 1.200 0 0 1
C756 RECT_CLOSED 0.900 0.900 0 0 1
C757 RECT_CLOSED 1.090 1.090 0 0 1
C758 RECT_CLOSED 0.900 0.900 0 0 1
C759 RECT_CLOSED 0.870 0.870 0 0 1
C760 RECT_CLOSED 0.950 0.950 0 0 1
C761 RECT_CLOSED 0.940 0.940 0 0 1
C762 RECT_CLOSED 0.680 0.680 0 0 1
C763 RECT_CLOSED 1.000 1.000 0 0 1
C764 RECT_CLOSED 1.200 1.200 0 0 1
C765 RECT_CLOSED 1.150 1.150 0 0 1
C766 RECT_CLOSED 0.930 0.930 0 0 1
C767 RECT_CLOSED 1.050 1.050 0 0 1
C768 RECT_CLOSED 1.050 1.050 0 0 1
C769 RECT_CLOSED 0.740 0.740 0 0 1
C770 RECT_CLOSED 1.060 1.060 0 0 1
C771 RECT_CLOSED 1.180 1.180 0 0 1
C772 RECT_CLOSED 1.120 1.120 0 0 1
C773 RECT_CLOSED 0.960 0.960 0 0 1
C774 RECT_CLOSED 0.960 0.960 0 0 1
C775 RECT_CLOSED 0.990 0.990 0 0 1
C776 RECT_CLOSED 0.880 0.880 0 0 1
C777 RECT_CLOSED 1.040 1.040 0 0 1
C778 RECT_CLOSED 1.220 1.220 0 0 1
C779 RECT_CLOSED 0.920 0.920 0 0 1
C780 RECT_CLOSED 0.900 0.900 0 0 1
C781 RECT_CLOSED 0.930 0.930 0 0 1
C782 RECT_CLOSED 0.730 0.730 0 0 1
C783 RECT_CLOSED 1.180 1.180 0 0 1
C784 RECT_CLOSED 0.970 0.970 0 0 1
C785 RECT_CLOSED 0.950 0.950 0 0 1
C786 RECT_CLOSED 1.200 1.200 0 0 1
C787 RECT_CLOSED 1.050 1.050 0 0 1
C788 RECT_CLOSED 1.000 1.000 0 0 1
C789 RECT_CLOSED 1.200 1.200 0 0 1
C790 RECT_CLOSED 1.200 1.200 0 0 1
C791 RECT_CLOSED 0.930 0.930 0 0 1
C792 RECT_CLOSED 0.970 0.970 0 0 1
C793 RECT_CLOSED 1.200 1.200 0 0 1
C794 RECT_CLOSED 1.120 1.120 0 0 1
C795 RECT_CLOSED 1.200 1.200 0 0 1
C796 RECT_CLOSED 1.570 1.570 0 0 1
C797 RECT_CLOSED 0.950 0.950 0 0 1
C798 RECT_CLOSED 1.150 1.150 0 0 1
C799 RECT_CLOSED 0.900 0.900 0 0 1
C800 RECT_CLOSED 0.900 0.900 0 0 1
C801 RECT_CLOSED 0.900 0.900 0 0 1
C802 RECT_CLOSED 1.050 1.050 0 0 1
C803 RECT_CLOSED 0.900 0.900 0 0 1
C804 RECT_CLOSED 0.740 0.740 0 0 1
C805 RECT_CLOSED 0.740 0.740 0 0 1
C806 RECT_CLOSED 0.820 0.820 0 0 1
C807 RECT_CLOSED 0.870 0.870 0 0 1
C808 RECT_CLOSED 0.850 0.850 0 0 1
C809 RECT_CLOSED 0.900 0.900 0 0 1
C810 RECT_CLOSED 0.960 0.960 0 0 1
C811 RECT_CLOSED 0.890 0.890 0 0 1
C812 RECT_CLOSED 1.340 1.340 0 0 1
C813 RECT_CLOSED 0.830 0.830 0 0 1
C814 RECT_CLOSED 0.900 0.900 0 0 1
C815 RECT_CLOSED 0.970 0.970 0 0 1
C816 RECT_CLOSED 1.200 1.200 0 0 1
C817 RECT_CLOSED 1.200 1.200 0 0 1
C818 RECT_CLOSED 0.740 0.740 0 0 1
C819 RECT_CLOSED 0.590 0.590 0 0 1
C820 RECT_CLOSED 0.810 0.810 0 0 1
C821 RECT_CLOSED 1.200 1.200 0 0 1
C822 RECT_CLOSED 0.590 0.590 0 0 1
C823 RECT_CLOSED 0.900 0.900 0 0 1
C824 RECT_CLOSED 0.780 0.780 0 0 1
C825 RECT_CLOSED 0.630 0.630 0 0 1
C826 RECT_CLOSED 1.020 1.020 0 0 1
C827 RECT_CLOSED 1.290 1.290 0 0 1
C828 RECT_CLOSED 0.980 0.980 0 0 1
C829 RECT_CLOSED 1.090 1.090 0 0 1
C830 RECT_CLOSED 0.990 0.990 0 0 1
C831 RECT_CLOSED 0.920 0.920 0 0 1
C832 RECT_CLOSED 1.060 1.060 0 0 1
C833 RECT_CLOSED 0.900 0.900 0 0 1
C834 RECT_CLOSED 0.910 0.910 0 0 1
C835 RECT_CLOSED 0.750 0.750 0 0 1
C836 RECT_CLOSED 1.050 1.050 0 0 1
C837 RECT_CLOSED 1.240 1.240 0 0 1
C838 RECT_CLOSED 1.090 1.090 0 0 1
C839 RECT_CLOSED 1.200 1.200 0 0 1
C840 RECT_CLOSED 1.270 1.270 0 0 1
C841 RECT_CLOSED 1.150 1.150 0 0 1
C842 RECT_CLOSED 1.220 1.220 0 0 1
C843 RECT_CLOSED 1.790 1.790 0 0 1
C844 RECT_CLOSED 1.790 1.790 0 0 1
C845 RECT_CLOSED 0.880 0.880 0 0 1
C846 RECT_CLOSED 1.320 1.320 0 0 1
C847 RECT_CLOSED 0.850 0.850 0 0 1
C848 RECT_CLOSED 0.860 0.860 0 0 1
C849 RECT_CLOSED 1.130 1.130 0 0 1
C850 RECT_CLOSED 1.120 1.120 0 0 1
C851 RECT_CLOSED 0.800 0.800 0 0 1
C852 RECT_CLOSED 1.020 1.020 0 0 1
C853 RECT_CLOSED 1.110 1.110 0 0 1
C854 RECT_CLOSED 1.290 1.290 0 0 1
C855 RECT_CLOSED 1.170 1.170 0 0 1
C856 RECT_CLOSED 1.120 1.120 0 0 1
C857 RECT_CLOSED 0.720 0.720 0 0 1
C858 RECT_CLOSED 0.650 0.650 0 0 1
C859 RECT_CLOSED 0.870 0.870 0 0 1
C860 RECT_CLOSED 0.730 0.730 0 0 1
C861 RECT_CLOSED 0.780 0.780 0 0 1
C862 RECT_CLOSED 0.970 0.970 0 0 1
C863 RECT_CLOSED 1.170 1.170 0 0 1
C864 RECT_CLOSED 0.800 0.800 0 0 1
C865 RECT_CLOSED 0.840 0.840 0 0 1
C866 RECT_CLOSED 0.820 0.820 0 0 1
C867 RECT_CLOSED 0.820 0.820 0 0 1
C868 RECT_CLOSED 0.570 0.570 0 0 1
C869 RECT_CLOSED 0.760 0.760 0 0 1
C870 RECT_CLOSED 0.940 0.940 0 0 1
C871 RECT_CLOSED 0.690 0.690 0 0 1
C872 RECT_CLOSED 0.450 0.450 0 0 1
C873 RECT_CLOSED 0.610 0.610 0 0 1
C874 RECT_CLOSED 0.620 0.620 0 0 1
C875 RECT_CLOSED 0.620 0.620 0 0 1
C876 RECT_CLOSED 1.020 1.020 0 0 1
C877 RECT_CLOSED 1.090 1.090 0 0 1
C878 RECT_CLOSED 1.560 1.560 0 0 1
C879 RECT_CLOSED 0.610 0.610 0 0 1
C880 RECT_CLOSED 0.960 0.960 0 0 1
C881 RECT_CLOSED 0.930 0.930 0 0 1
C882 RECT_CLOSED 0.780 0.780 0 0 1
C883 RECT_CLOSED 0.910 0.910 0 0 1
C884 RECT_CLOSED 1.210 1.210 0 0 1
C885 RECT_CLOSED 1.080 1.080 0 0 1
C886 RECT_CLOSED 1.000 1.000 0 0 1
C887 RECT_CLOSED 0.610 0.610 0 0 1
C888 RECT_CLOSED 0.960 0.960 0 0 1
C889 RECT_CLOSED 0.970 0.970 0 0 1
C890 RECT_CLOSED 0.940 0.940 0 0 1
C891 RECT_CLOSED 0.800 0.800 0 0 1
C892 RECT_CLOSED 0.800 0.800 0 0 1
C893 RECT_CLOSED 0.460 0.460 0 0 1
C894 RECT_CLOSED 1.050 1.050 0 0 1
C895 RECT_CLOSED 0.870 0.870 0 0 1
C896 RECT_CLOSED 0.720 0.720 0 0 1
C897 RECT_CLOSED 1.080 1.080 0 0 1
C898 RECT_CLOSED 0.880 0.880 0 0 1
C899 RECT_CLOSED 0.500 0.500 0 0 1
C900 RECT_CLOSED 0.880 0.880 0 0 1
C901 RECT_CLOSED 1.000 1.000 0 0 1
C902 RECT_CLOSED 0.760 0.760 0 0 1
C903 RECT_CLOSED 1.060 1.060 0 0 1
C904 RECT_CLOSED 1.170 1.170 0 0 1
C905 RECT_CLOSED 0.910 0.910 0 0 1
C906 RECT_CLOSED 0.960 0.960 0 0 1
C907 RECT_CLOSED 1.020 1.020 0 0 1
C908 RECT_CLOSED 1.050 1.050 0 0 1
C909 RECT_CLOSED 0.760 0.760 0 0 1
C910 RECT_CLOSED 0.280 0.280 0 0 1
C911 RECT_CLOSED 0.890 0.890 0 0 1
C912 RECT_CLOSED 1.400 1.400 0 0 1
C913 RECT_CLOSED 1.450 1.450 0 0 1
C914 RECT_CLOSED 1.200 1.200 0 0 1
C915 RECT_CLOSED 0.550 0.550 0 0 1
C916 RECT_OPEN 0.400 0.400 0 0 1
C917 RECT_OPEN 0.600 0.600 0 0 1
C918 RECT_CLOSED 0.950 0.950 0 0 1
C919 RECT_CLOSED 1.050 1.050 0 0 1
C920 RECT_CLOSED 1.050 1.050 0 0 1
C921 RECT_CLOSED 1.150 1.150 0 0 1
C922 RECT_CLOSED 1.050 1.050 0 0 1
C923 RECT_CLOSED 0.600 0.600 0 0 1
C924 RECT_CLOSED 0.950 0.950 0 0 1
C925 RECT_CLOSED 1.150 1.150 0 0 1
C926 RECT_CLOSED 1.150 1.150 0 0 1
C927 RECT_CLOSED 1.050 1.050 0 0 1
C928 RECT_CLOSED 0.950 0.950 0 0 1
C929 RECT_CLOSED 0.950 0.950 0 0 1
C930 RECT_CLOSED 0.750 0.750 0 0 1
C931 RECT_CLOSED 0.950 0.950 0 0 1
C932 RECT_CLOSED 0.630 0.630 0 0 1
C933 RECT_CLOSED 0.850 0.850 0 0 1
C934 RECT_CLOSED 1.450 1.450 0 0 1
C935 RECT_CLOSED 0.850 0.850 0 0 1
C936 RECT_CLOSED 1.050 1.050 0 0 1
C937 RECT_CLOSED 1.580 1.580 0 0 1
C938 RECT_CLOSED 1.920 1.920 0 0 1
C939 RECT_CLOSED 0.850 0.850 0 0 1
C940 RECT_CLOSED 0.740 0.740 0 0 1
C941 RECT_CLOSED 0.760 0.760 0 0 1
C942 RECT_CLOSED 0.700 0.700 0 0 1
C943 RECT_CLOSED 0.910 0.910 0 0 1
C944 RECT_CLOSED 1.050 1.050 0 0 1
C945 RECT_CLOSED 0.590 0.590 0 0 1
C946 RECT_CLOSED 0.640 0.640 0 0 1
C947 RECT_CLOSED 1.180 1.180 0 0 1
C948 RECT_CLOSED 0.670 0.670 0 0 1
C949 RECT_CLOSED 1.110 1.110 0 0 1
C950 RECT_CLOSED 1.400 1.400 0 0 1
C951 RECT_CLOSED 0.720 0.720 0 0 1
C952 RECT_CLOSED 0.640 0.640 0 0 1
C953 RECT_CLOSED 0.620 0.620 0 0 1
C954 RECT_CLOSED 0.660 0.660 0 0 1
C955 RECT_CLOSED 1.230 1.230 0 0 1
C956 RECT_CLOSED 0.530 0.530 0 0 1
C957 RECT_CLOSED 1.650 1.650 0 0 1
C958 RECT_CLOSED 1.440 1.440 0 0 1
C959 RECT_CLOSED 1.210 1.210 0 0 1
C960 RECT_CLOSED 1.350 1.350 0 0 1
C961 RECT_CLOSED 1.080 1.080 0 0 1
C962 RECT_CLOSED 0.480 0.480 0 0 1
C963 RECT_CLOSED 0.610 0.610 0 0 1
C964 RECT_CLOSED 0.820 0.820 0 0 1
C965 RECT_CLOSED 1.020 1.020 0 0 1
C966 RECT_CLOSED 0.800 0.800 0 0 1
C967 RECT_CLOSED 0.910 0.910 0 0 1
C968 RECT_CLOSED 0.690 0.690 0 0 1
C969 RECT_CLOSED 0.600 0.600 0 0 1
C970 RECT_CLOSED 0.690 0.690 0 0 1
C971 RECT_CLOSED 0.620 0.620 0 0 1
C972 RECT_CLOSED 0.680 0.680 0 0 1
C973 RECT_CLOSED 0.590 0.590 0 0 1
C974 RECT_CLOSED 0.750 0.750 0 0 1
C975 RECT_CLOSED 0.510 0.510 0 0 1
C976 RECT_CLOSED 0.820 0.820 0 0 1
C977 RECT_CLOSED 0.890 0.890 0 0 1
C978 RECT_CLOSED 0.920 0.920 0 0 1
C979 RECT_CLOSED 0.670 0.670 0 0 1
C980 RECT_CLOSED 0.520 0.520 0 0 1
C981 RECT_CLOSED 0.680 0.680 0 0 1
C982 RECT_CLOSED 0.690 0.690 0 0 1
C983 RECT_OPEN 1.040 1.040 0 0 1
C984 RECT_CLOSED 0.640 0.640 0 0 1
C985 RECT_CLOSED 0.570 0.570 0 0 1
C986 RECT_CLOSED 0.740 0.740 0 0 1
C987 RECT_CLOSED 0.670 0.670 0 0 1
C988 RECT_CLOSED 0.710 0.710 0 0 1
C989 RECT_CLOSED 0.840 0.840 0 0 1
C990 RECT_CLOSED 0.900 0.900 0 0 1
C991 RECT_CLOSED 0.950 0.950 0 0 1
C992 RECT_CLOSED 0.540 0.540 0 0 1
C993 RECT_CLOSED 0.560 0.560 0 0 1
C994 RECT_CLOSED 0.570 0.570 0 0 1
C995 RECT_CLOSED 0.570 0.570 0 0 1
C996 RECT_CLOSED 0.560 0.560 0 0 1
C997 RECT_CLOSED 0.520 0.520 0 0 1
C998 RECT_CLOSED 0.560 0.560 0 0 1
C999 RECT_CLOSED 0.610 0.610 0 0 1
C1000 RECT_CLOSED 0.760 0.760 0 0 1
C1001 RECT_CLOSED 0.630 0.630 0 0 1
C1002 RECT_CLOSED 0.610 0.610 0 0 1
C1003 RECT_CLOSED 0.460 0.460 0 0 1
C1004 RECT_CLOSED 0.890 0.890 0 0 1
C1005 RECT_CLOSED 1.020 1.020 0 0 1
C1006 RECT_CLOSED 0.800 0.800 0 0 1
C1007 RECT_CLOSED 0.600 0.600 0 0 1
C1008 RECT_CLOSED 1.500 1.500 0 0 1
C1009 RECT_CLOSED 0.650 0.650 0 0 1
C1010 RECT_CLOSED 0.600 0.600 0 0 1
C1011 RECT_CLOSED 0.600 0.600 0 0 1
C1012 RECT_CLOSED 0.600 0.600 0 0 1
C1013 RECT_CLOSED 0.650 0.650 0 0 1
C1014 RECT_CLOSED 0.500 0.500 0 0 1
C1015 RECT_CLOSED 0.600 0.600 0 0 1
C1016 RECT_CLOSED 0.550 0.550 0 0 1
C1017 RECT_CLOSED 0.700 0.700 0 0 1
C1018 RECT_CLOSED 0.950 0.950 0 0 1
C1019 RECT_CLOSED 0.800 0.800 0 0 1
C1020 RECT_CLOSED 0.850 0.850 0 0 1
C1021 RECT_CLOSED 0.750 0.750 0 0 1
C1022 RECT_CLOSED 0.750 0.750 0 0 1
C1023 RECT_CLOSED 0.650 0.650 0 0 1
C1024 RECT_CLOSED 0.500 0.500 0 0 1
C1025 RECT_CLOSED 1.500 1.500 0 0 1
C1026 RECT_CLOSED 0.980 0.980 0 0 1
C1027 RECT_CLOSED 0.680 0.680 0 0 1
C1028 RECT_CLOSED 1.200 1.200 0 0 1
C1029 RECT_CLOSED 0.710 0.710 0 0 1
C1030 RECT_CLOSED 0.820 0.820 0 0 1
C1031 RECT_CLOSED 0.800 0.800 0 0 1
C1032 RECT_CLOSED 0.750 0.750 0 0 1
C1033 RECT_CLOSED 0.760 0.760 0 0 1
C1034 RECT_CLOSED 0.690 0.690 0 0 1
C1035 RECT_CLOSED 0.510 0.510 0 0 1
C1036 RECT_CLOSED 1.010 1.010 0 0 1
C1037 RECT_CLOSED 0.620 0.620 0 0 1
C1038 RECT_CLOSED 0.710 0.710 0 0 1
C1039 RECT_CLOSED 0.680 0.680 0 0 1
C1040 RECT_CLOSED 1.060 1.060 0 0 1
C1041 RECT_CLOSED 0.840 0.840 0 0 1
C1042 RECT_CLOSED 0.660 0.660 0 0 1
C1043 RECT_CLOSED 1.030 1.030 0 0 1
C1044 RECT_CLOSED 1.350 1.350 0 0 1
C1045 RECT_CLOSED 0.830 0.830 0 0 1
C1046 RECT_CLOSED 0.650 0.650 0 0 1
C1047 RECT_CLOSED 0.900 0.900 0 0 1
C1048 RECT_CLOSED 0.820 0.820 0 0 1
C1049 RECT_CLOSED 0.760 0.760 0 0 1
C1050 RECT_CLOSED 0.850 0.850 0 0 1
C1051 RECT_CLOSED 0.670 0.670 0 0 1
C1052 RECT_CLOSED 0.850 0.850 0 0 1
C1053 RECT_CLOSED 0.910 0.910 0 0 1
C1054 RECT_CLOSED 0.840 0.840 0 0 1
C1055 RECT_CLOSED 0.750 0.750 0 0 1
C1056 RECT_CLOSED 1.350 1.350 0 0 1
C1057 RECT_CLOSED 0.410 0.410 0 0 1
C1058 RECT_CLOSED 1.000 1.000 0 0 1
C1059 RECT_CLOSED 0.600 0.600 0 0 1
C1060 RECT_CLOSED 0.770 0.770 0 0 1
C1061 RECT_CLOSED 0.670 0.670 0 0 1
C1062 RECT_CLOSED 0.780 0.780 0 0 1
C1063 RECT_CLOSED 0.690 0.690 0 0 1
C1064 RECT_CLOSED 0.680 0.680 0 0 1
C1065 RECT_CLOSED 0.650 0.650 0 0 1
C1066 RECT_CLOSED 0.650 0.650 0 0 1
C1067 RECT_CLOSED 0.600 0.600 0 0 1
C1068 RECT_CLOSED 1.000 1.000 0 0 1
C1069 RECT_CLOSED 0.770 0.770 0 0 1
C1070 RECT_CLOSED 0.640 0.640 0 0 1
C1071 RECT_CLOSED 0.840 0.840 0 0 1
C1072 RECT_CLOSED 0.650 0.650 0 0 1
C1073 RECT_CLOSED 0.790 0.790 0 0 1
C1074 RECT_CLOSED 0.910 0.910 0 0 1
C1075 RECT_CLOSED 0.940 0.940 0 0 1
C1076 RECT_CLOSED 1.240 1.240 0 0 1
C1077 RECT_CLOSED 0.820 0.820 0 0 1
C1078 RECT_CLOSED 0.590 0.590 0 0 1
C1079 RECT_CLOSED 0.640 0.640 0 0 1
C1080 RECT_CLOSED 0.930 0.930 0 0 1
C1081 RECT_CLOSED 1.350 1.350 0 0 1
C1082 RECT_CLOSED 0.900 0.900 0 0 1
C1083 RECT_CLOSED 0.700 0.700 0 0 1
C1084 RECT_CLOSED 0.680 0.680 0 0 1
C1085 RECT_CLOSED 0.610 0.610 0 0 1
C1086 RECT_CLOSED 0.900 0.900 0 0 1
C1087 RECT_CLOSED 0.610 0.610 0 0 1
C1088 RECT_CLOSED 0.760 0.760 0 0 1
C1089 RECT_CLOSED 1.010 1.010 0 0 1
C1090 RECT_CLOSED 0.540 0.540 0 0 1
C1091 RECT_CLOSED 1.000 1.000 0 0 1
C1092 RECT_CLOSED 0.910 0.910 0 0 1
C1093 RECT_CLOSED 0.640 0.640 0 0 1
C1094 RECT_CLOSED 0.810 0.810 0 0 1
C1095 RECT_OPEN 0.570 0.570 0 0 1
C1096 RECT_CLOSED 0.740 0.740 0 0 1
C1097 RECT_CLOSED 0.700 0.700 0 0 1
C1098 RECT_CLOSED 0.550 0.550 0 0 1
C1099 RECT_CLOSED 1.200 1.200 0 0 1
C1100 RECT_CLOSED 0.670 0.670 0 0 1
C1101 RECT_CLOSED 0.770 0.770 0 0 1
C1102 RECT_CLOSED 1.450 1.450 0 0 1
C1103 RECT_CLOSED 0.660 0.660 0 0 1
C1104 RECT_CLOSED 0.890 0.890 0 0 1
C1105 RECT_CLOSED 0.890 0.890 0 0 1
C1106 RECT_CLOSED 0.710 0.710 0 0 1
C1107 RECT_CLOSED 0.690 0.690 0 0 1
C1108 RECT_CLOSED 0.860 0.860 0 0 1
C1109 RECT_CLOSED 0.770 0.770 0 0 1
C1110 RECT_CLOSED 0.750 0.750 0 0 1
C1111 RECT_CLOSED 1.390 1.390 0 0 1
C1112 RECT_CLOSED 0.640 0.640 0 0 1
C1113 RECT_CLOSED 0.970 0.970 0 0 1
C1114 RECT_CLOSED 0.400 0.400 0 0 1
C1115 RECT_CLOSED 1.250 1.250 0 0 1
C1116 RECT_CLOSED 0.670 0.670 0 0 1
C1117 RECT_CLOSED 0.840 0.840 0 0 1
C1118 RECT_CLOSED 0.640 0.640 0 0 1
C1119 RECT_CLOSED 0.830 0.830 0 0 1
C1120 RECT_CLOSED 0.550 0.550 0 0 1
C1121 RECT_CLOSED 0.590 0.590 0 0 1
C1122 RECT_CLOSED 0.560 0.560 0 0 1
C1123 RECT_CLOSED 0.670 0.670 0 0 1
C1124 RECT_CLOSED 0.600 0.600 0 0 1
C1125 RECT_CLOSED 0.570 0.570 0 0 1
C1126 RECT_OPEN 0.340 0.340 0 0 1
C1127 RECT_OPEN 0.510 0.510 0 0 1
C1128 RECT_CLOSED 0.640 0.640 0 0 1
C1129 RECT_CLOSED 0.780 0.780 0 0 1
C1130 RECT_CLOSED 0.490 0.490 0 0 1
C1131 RECT_CLOSED 0.470 0.470 0 0 1
C1132 RECT_CLOSED 0.570 0.570 0 0 1
C1133 RECT_CLOSED 0.730 0.730 0 0 1
C1134 RECT_CLOSED 0.470 0.470 0 0 1
C1135 RECT_CLOSED 0.750 0.750 0 0 1
C1136 RECT_CLOSED 0.530 0.530 0 0 1
C1137 RECT_CLOSED 0.710 0.710 0 0 1
C1138 RECT_CLOSED 0.790 0.790 0 0 1
C1139 RECT_CLOSED 0.790 0.790 0 0 1
C1140 RECT_CLOSED 0.710 0.710 0 0 1
C1141 RECT_CLOSED 0.680 0.680 0 0 1
C1142 RECT_CLOSED 1.080 1.080 0 0 1
C1143 RECT_CLOSED 0.610 0.610 0 0 1
C1144 RECT_CLOSED 0.670 0.670 0 0 1
C1145 RECT_CLOSED 0.650 0.650 0 0 1
C1146 RECT_CLOSED 0.540 0.540 0 0 1
C1147 RECT_CLOSED 0.660 0.660 0 0 1
C1148 RECT_OPEN 0.460 0.460 0 0 1
C1149 RECT_CLOSED 0.430 0.430 0 0 1
C1150 RECT_CLOSED 0.830 0.830 0 0 1
C1151 RECT_CLOSED 0.880 0.880 0 0 1
C1152 RECT_CLOSED 0.500 0.500 0 0 1
C1153 RECT_CLOSED 0.760 0.760 0 0 1
C1154 RECT_OPEN 0.620 0.620 0 0 1
C1155 RECT_CLOSED 0.910 0.910 0 0 1
C1156 RECT_OPEN 0.720 0.720 0 0 1
C1157 RECT_CLOSED 0.640 0.640 0 0 1
C1158 RECT_CLOSED 0.600 0.600 0 0 1
C1159 RECT_CLOSED 0.630 0.630 0 0 1
C1160 RECT_CLOSED 0.520 0.520 0 0 1
C1161 RECT_CLOSED 0.650 0.650 0 0 1
C1162 RECT_CLOSED 0.740 0.740 0 0 1
C1163 RECT_CLOSED 0.990 0.990 0 0 1
C1164 RECT_CLOSED 0.600 0.600 0 0 1
C1165 RECT_CLOSED 0.640 0.640 0 0 1
C1166 RECT_CLOSED 0.680 0.680 0 0 1
C1167 RECT_CLOSED 0.790 0.790 0 0 1
C1168 RECT_CLOSED 0.770 0.770 0 0 1
C1169 RECT_OPEN 0.540 0.540 0 0 1
C1170 RECT_CLOSED 0.730 0.730 0 0 1
C1171 RECT_CLOSED 0.750 0.750 0 0 1
C1172 RECT_OPEN 1.990 1.990 0 0 1
C1173 RECT_CLOSED 0.670 0.670 0 0 1
C1174 RECT_OPEN 0.440 0.440 0 0 1
C1175 RECT_OPEN 0.420 0.420 0 0 1
C1176 RECT_CLOSED 0.710 0.710 0 0 1
C1177 RECT_CLOSED 0.740 0.740 0 0 1
C1178 RECT_CLOSED 0.660 0.660 0 0 1
C1179 RECT_CLOSED 0.580 0.580 0 0 1
C1180 RECT_CLOSED 1.070 1.070 0 0 1
C1181 RECT_CLOSED 1.260 1.260 0 0 1
C1182 RECT_CLOSED 0.820 0.820 0 0 1
C1183 RECT_CLOSED 0.460 0.460 0 0 1
C1184 RECT_CLOSED 2.080 2.080 0 0 1
C1185 RECT_CLOSED 2.420 2.420 0 0 1
C1186 RECT_CLOSED 0.540 0.540 0 0 1
C1187 RECT_CLOSED 0.800 0.800 0 0 1
C1188 RECT_CLOSED 0.590 0.590 0 0 1
C1189 RECT_CLOSED 0.790 0.790 0 0 1
C1190 RECT_CLOSED 0.780 0.780 0 0 1
C1191 RECT_OPEN 0.810 0.810 0 0 1
C1192 RECT_CLOSED 0.670 0.670 0 0 1
C1193 RECT_CLOSED 0.460 0.460 0 0 1
C1194 RECT_CLOSED 0.860 0.860 0 0 1
C1195 RECT_CLOSED 1.080 1.080 0 0 1
C1196 RECT_CLOSED 0.690 0.690 0 0 1
C1197 RECT_CLOSED 0.560 0.560 0 0 1
C1198 RECT_CLOSED 0.610 0.610 0 0 1
C1199 RECT_CLOSED 0.630 0.630 0 0 1
C1200 RECT_CLOSED 0.560 0.560 0 0 1
C1201 RECT_CLOSED 0.640 0.640 0 0 1
C1202 RECT_CLOSED 0.760 0.760 0 0 1
C1203 RECT_CLOSED 0.660 0.660 0 0 1
C1204 RECT_CLOSED 0.860 0.860 0 0 1
C1205 RECT_CLOSED 0.950 0.950 0 0 1
C1206 RECT_CLOSED 0.860 0.860 0 0 1
C1207 RECT_CLOSED 0.840 0.840 0 0 1
C1208 RECT_CLOSED 1.200 1.200 0 0 1
C1209 RECT_CLOSED 0.660 0.660 0 0 1
C1210 RECT_CLOSED 0.720 0.720 0 0 1
C1211 RECT_CLOSED 0.720 0.720 0 0 1
C1212 RECT_CLOSED 0.870 0.870 0 0 1
C1213 RECT_CLOSED 0.830 0.830 0 0 1
C1214 RECT_CLOSED 0.750 0.750 0 0 1
C1215 RECT_CLOSED 0.750 0.750 0 0 1
C1216 RECT_CLOSED 1.050 1.050 0 0 1
C1217 RECT_CLOSED 0.710 0.710 0 0 1
C1218 RECT_CLOSED 0.490 0.490 0 0 1
C1219 RECT_CLOSED 1.450 1.450 0 0 1
C1220 RECT_CLOSED 1.680 1.680 0 0 1
C1221 RECT_OPEN 2.970 2.970 0 0 1
C1222 RECT_OPEN 2.150 2.150 0 0 1
C1223 RECT_CLOSED 0.670 0.670 0 0 1
C1224 RECT_CLOSED 0.800 0.800 0 0 1
C1225 RECT_OPEN 0.460 0.460 0 0 1
C1226 RECT_OPEN 0.390 0.390 0 0 1
C1227 RECT_OPEN 0.530 0.530 0 0 1
C1228 RECT_CLOSED 0.610 0.610 0 0 1
C1229 RECT_CLOSED 1.440 1.440 0 0 1
C1230 RECT_CLOSED 3.750 3.750 0 0 1
C1231 RECT_OPEN 0.650 0.650 0 0 1
C1232 RECT_OPEN 0.930 0.930 0 0 1
C1233 RECT_CLOSED 0.760 0.760 0 0 1
C1234 RECT_CLOSED 0.480 0.480 0 0 1
C1235 RECT_CLOSED 0.620 0.620 0 0 1
C1236 RECT_CLOSED 0.610 0.610 0 0 1
C1237 RECT_CLOSED 0.620 0.620 0 0 1
C1238 RECT_CLOSED 0.560 0.560 0 0 1
C1239 RECT_CLOSED 0.810 0.810 0 0 1
C1240 RECT_CLOSED 0.770 0.770 0 0 1
C1241 RECT_CLOSED 0.900 0.900 0 0 1
C1242 RECT_CLOSED 0.790 0.790 0 0 1
C1243 RECT_CLOSED 0.350 0.350 0 0 1
C1244 RECT_CLOSED 0.460 0.460 0 0 1
C1245 RECT_CLOSED 0.780 0.780 0 0 1
C1246 RECT_CLOSED 0.900 0.900 0 0 1
C1247 RECT_CLOSED 0.770 0.770 0 0 1
C1248 RECT_CLOSED 0.800 0.800 0 0 1
C1249 RECT_CLOSED 0.800 0.800 0 0 1
C1250 RECT_CLOSED 0.650 0.650 0 0 1
C1251 RECT_CLOSED 0.750 0.750 0 0 1
C1252 RECT_CLOSED 0.650 0.650 0 0 1
C1253 RECT_CLOSED 0.600 0.600 0 0 1
C1254 RECT_CLOSED 0.850 0.850 0 0 1
C1255 RECT_CLOSED 0.850 0.850 0 0 1
C1256 RECT_CLOSED 0.650 0.650 0 0 1
C1257 RECT_CLOSED 0.730 0.730 0 0 1
C1258 RECT_CLOSED 0.600 0.600 0 0 1
C1259 RECT_CLOSED 0.720 0.720 0 0 1
C1260 RECT_CLOSED 0.850 0.850 0 0 1
C1261 RECT_CLOSED 0.770 0.770 0 0 1
C1262 RECT_CLOSED 0.800 0.800 0 0 1
C1263 RECT_CLOSED 0.700 0.700 0 0 1
C1264 RECT_CLOSED 0.950 0.950 0 0 1
C1265 RECT_CLOSED 1.450 1.450 0 0 1
C1266 RECT_CLOSED 1.500 1.500 0 0 1
C1267 RECT_CLOSED 1.150 1.150 0 0 1
C1268 RECT_CLOSED 0.700 0.700 0 0 1
C1269 RECT_CLOSED 0.800 0.800 0 0 1
C1270 RECT_CLOSED 1.250 1.250 0 0 1
C1271 RECT_CLOSED 0.750 0.750 0 0 1
C1272 RECT_CLOSED 0.950 0.950 0 0 1
C1273 RECT_CLOSED 0.600 0.600 0 0 1
C1274 RECT_CLOSED 0.660 0.660 0 0 1
C1275 RECT_CLOSED 1.200 1.200 0 0 1
C1276 RECT_CLOSED 0.950 0.950 0 0 1
C1277 RECT_CLOSED 0.550 0.550 0 0 1
C1278 RECT_CLOSED 0.600 0.600 0 0 1
C1279 RECT_CLOSED 0.800 0.800 0 0 1
C1280 RECT_CLOSED 1.100 1.100 0 0 1
C1281 RECT_CLOSED 0.650 0.650 0 0 1
C1282 RECT_CLOSED 0.880 0.880 0 0 1
C1283 RECT_CLOSED 0.650 0.650 0 0 1
C1284 RECT_CLOSED 0.770 0.770 0 0 1
C1285 RECT_OPEN 0.520 0.520 0 0 1
C1286 RECT_OPEN 0.300 0.300 0 0 1
C1287 RECT_CLOSED 0.900 0.900 0 0 1
C1288 RECT_CLOSED 0.600 0.600 0 0 1
C1289 RECT_CLOSED 0.950 0.950 0 0 1
C1290 RECT_CLOSED 0.750 0.750 0 0 1
C1291 RECT_CLOSED 0.400 0.400 0 0 1
C1292 RECT_CLOSED 0.750 0.750 0 0 1
C1293 RECT_CLOSED 0.850 0.850 0 0 1
C1294 RECT_CLOSED 0.950 0.950 0 0 1
C1295 RECT_OPEN 0.650 0.650 0 0 1
C1296 RECT_CLOSED 0.950 0.950 0 0 1
C1297 RECT_CLOSED 1.500 1.500 0 0 1
C1298 RECT_CLOSED 1.250 1.250 0 0 1
C1299 RECT_CLOSED 1.050 1.050 0 0 1
C1300 RECT_CLOSED 0.900 0.900 0 0 1
C1301 RECT_CLOSED 0.750 0.750 0 0 1
C1302 RECT_CLOSED 0.750 0.750 0 0 1
C1303 RECT_CLOSED 0.850 0.850 0 0 1
C1304 RECT_CLOSED 0.700 0.700 0 0 1
C1305 RECT_CLOSED 0.600 0.600 0 0 1
C1306 RECT_CLOSED 0.750 0.750 0 0 1
C1307 RECT_CLOSED 0.700 0.700 0 0 1
C1308 RECT_CLOSED 0.700 0.700 0 0 1
C1309 RECT_CLOSED 0.900 0.900 0 0 1
C1310 RECT_CLOSED 0.850 0.850 0 0 1
C1311 RECT_CLOSED 0.750 0.750 0 0 1
C1312 RECT_CLOSED 0.950 0.950 0 0 1
C1313 RECT_CLOSED 0.700 0.700 0 0 1
C1314 RECT_CLOSED 0.750 0.750 0 0 1
C1315 RECT_CLOSED 0.750 0.750 0 0 1
C1316 RECT_CLOSED 0.750 0.750 0 0 1
C1317 RECT_CLOSED 0.850 0.850 0 0 1
C1318 RECT_CLOSED 0.750 0.750 0 0 1
C1319 RECT_CLOSED 0.800 0.800 0 0 1
C1320 RECT_OPEN 1.050 1.050 0 0 1
C1321 RECT_CLOSED 0.700 0.700 0 0 1
C1322 RECT_CLOSED 0.680 0.680 0 0 1
C1323 RECT_CLOSED 0.700 0.700 0 0 1
C1324 RECT_CLOSED 0.750 0.750 0 0 1
C1325 RECT_CLOSED 0.900 0.900 0 0 1
C1326 RECT_CLOSED 0.650 0.650 0 0 1
C1327 RECT_CLOSED 0.600 0.600 0 0 1
C1328 RECT_CLOSED 0.900 0.900 0 0 1
C1329 RECT_CLOSED 0.900 0.900 0 0 1
C1330 RECT_CLOSED 0.750 0.750 0 0 1
C1331 RECT_CLOSED 0.900 0.900 0 0 1
C1332 RECT_CLOSED 0.900 0.900 0 0 1
C1333 RECT_CLOSED 0.850 0.850 0 0 1
C1334 RECT_CLOSED 1.150 1.150 0 0 1
C1335 RECT_CLOSED 0.850 0.850 0 0 1
C1336 RECT_CLOSED 0.900 0.900 0 0 1
C1337 RECT_CLOSED 0.900 0.900 0 0 1
C1338 RECT_CLOSED 1.300 1.300 0 0 1
C1339 RECT_CLOSED 0.800 0.800 0 0 1
C1340 RECT_CLOSED 0.650 0.650 0 0 1
C1341 RECT_CLOSED 0.850 0.850 0 0 1
C1342 RECT_CLOSED 0.800 0.800 0 0 1
C1343 RECT_CLOSED 0.650 0.650 0 0 1
C1344 RECT_CLOSED 0.650 0.650 0 0 1
C1345 RECT_CLOSED 0.950 0.950 0 0 1
C1346 RECT_CLOSED 0.850 0.850 0 0 1
C1347 RECT_CLOSED 0.750 0.750 0 0 1
C1348 RECT_CLOSED 0.900 0.900 0 0 1
C1349 RECT_CLOSED 0.650 0.650 0 0 1
C1350 RECT_CLOSED 0.800 0.800 0 0 1
C1351 RECT_CLOSED 0.850 0.850 0 0 1
C1352 RECT_CLOSED 0.850 0.850 0 0 1
C1353 RECT_CLOSED 0.800 0.800 0 0 1
C1354 RECT_CLOSED 1.200 1.200 0 0 1
C1355 RECT_CLOSED 0.650 0.650 0 0 1
C1356 RECT_CLOSED 0.750 0.750 0 0 1
C1357 RECT_CLOSED 0.950 0.950 0 0 1
C1358 RECT_CLOSED 0.810 0.810 0 0 1
C1359 RECT_CLOSED 0.860 0.860 0 0 1
C1360 RECT_CLOSED 0.900 0.900 0 0 1
C1361 RECT_CLOSED 0.850 0.850 0 0 1
C1362 RECT_CLOSED 0.750 0.750 0 0 1
C1363 RECT_CLOSED 0.800 0.800 0 0 1
C1364 RECT_CLOSED 0.600 0.600 0 0 1
C1365 RECT_CLOSED 0.750 0.750 0 0 1
C1366 RECT_CLOSED 0.850 0.850 0 0 1
C1367 RECT_CLOSED 0.700 0.700 0 0 1
C1368 RECT_CLOSED 0.750 0.750 0 0 1
C1369 RECT_CLOSED 0.750 0.750 0 0 1
C1370 RECT_CLOSED 0.700 0.700 0 0 1
C1371 RECT_CLOSED 0.800 0.800 0 0 1
C1372 RECT_OPEN 0.650 0.650 0 0 1
C1373 RECT_CLOSED 0.800 0.800 0 0 1
C1374 RECT_CLOSED 0.950 0.950 0 0 1
C1375 RECT_CLOSED 0.750 0.750 0 0 1
C1376 RECT_OPEN 0.750 0.750 0 0 1
C1377 RECT_CLOSED 0.800 0.800 0 0 1
C1378 RECT_CLOSED 0.700 0.700 0 0 1
C1379 RECT_CLOSED 0.700 0.700 0 0 1
C1380 RECT_CLOSED 0.800 0.800 0 0 1
C1381 RECT_CLOSED 0.800 0.800 0 0 1
C1382 RECT_CLOSED 0.650 0.650 0 0 1
C1383 RECT_CLOSED 0.750 0.750 0 0 1
C1384 RECT_CLOSED 0.800 0.800 0 0 1
C1385 RECT_CLOSED 0.750 0.750 0 0 1
C1386 RECT_OPEN 0.800 0.800 0 0 1
C1387 RECT_OPEN 0.350 0.350 0 0 1
C1388 RECT_CLOSED 0.850 0.850 0 0 1
C1389 RECT_CLOSED 0.750 0.750 0 0 1
C1390 RECT_CLOSED 0.850 0.850 0 0 1
C1391 RECT_CLOSED 0.850 0.850 0 0 1
C1392 RECT_CLOSED 0.850 0.850 0 0 1
C1393 RECT_CLOSED 0.860 0.860 0 0 1
C1394 RECT_CLOSED 0.700 0.700 0 0 1
C1395 RECT_CLOSED 0.610 0.610 0 0 1
C1396 RECT_CLOSED 0.900 0.900 0 0 1
C1397 RECT_CLOSED 0.900 0.900 0 0 1
C1398 RECT_CLOSED 0.750 0.750 0 0 1
C1399 RECT_CLOSED 0.850 0.850 0 0 1
C1400 RECT_CLOSED 0.750 0.750 0 0 1
C1401 RECT_CLOSED 0.650 0.650 0 0 1
C1402 RECT_CLOSED 0.850 0.850 0 0 1
C1403 RECT_CLOSED 0.700 0.700 0 0 1
C1404 RECT_CLOSED 0.950 0.950 0 0 1
C1405 RECT_CLOSED 0.650 0.650 0 0 1
C1406 RECT_CLOSED 0.900 0.900 0 0 1
C1407 RECT_CLOSED 0.800 0.800 0 0 1
C1408 RECT_CLOSED 0.800 0.800 0 0 1
C1409 RECT_CLOSED 0.700 0.700 0 0 1
C1410 RECT_CLOSED 0.700 0.700 0 0 1
C1411 RECT_CLOSED 1.050 1.050 0 0 1
C1412 RECT_CLOSED 0.700 0.700 0 0 1
C1413 RECT_CLOSED 0.800 0.800 0 0 1
C1414 RECT_CLOSED 1.400 1.400 0 0 1
C1415 RECT_CLOSED 0.750 0.750 0 0 1
C1416 RECT_CLOSED 0.550 0.550 0 0 1
C1417 RECT_CLOSED 0.900 0.900 0 0 1
C1418 RECT_CLOSED 0.750 0.750 0 0 1
C1419 RECT_CLOSED 0.800 0.800 0 0 1
C1420 RECT_OPEN 0.500 0.500 0 0 1
C1421 RECT_CLOSED 0.650 0.650 0 0 1
C1422 RECT_CLOSED 0.950 0.950 0 0 1
C1423 RECT_CLOSED 1.200 1.200 0 0 1
C1424 RECT_CLOSED 0.650 0.650 0 0 1
C1425 RECT_CLOSED 0.950 0.950 0 0 1
C1426 RECT_CLOSED 0.800 0.800 0 0 1
C1427 RECT_CLOSED 0.700 0.700 0 0 1
C1428 RECT_CLOSED 0.800 0.800 0 0 1
C1429 RECT_CLOSED 0.650 0.650 0 0 1
C1430 RECT_CLOSED 0.650 0.650 0 0 1
C1431 RECT_CLOSED 0.650 0.650 0 0 1
C1432 RECT_CLOSED 0.650 0.650 0 0 1
C1433 RECT_CLOSED 0.650 0.650 0 0 1
C1434 RECT_CLOSED 0.750 0.750 0 0 1
C1435 RECT_CLOSED 0.650 0.650 0 0 1
C1436 RECT_CLOSED 0.650 0.650 0 0 1
C1437 RECT_CLOSED 0.750 0.750 0 0 1
C1438 RECT_CLOSED 0.750 0.750 0 0 1
C1439 RECT_CLOSED 0.650 0.650 0 0 1
C1440 RECT_CLOSED 0.650 0.650 0 0 1
C1441 RECT_CLOSED 0.950 0.950 0 0 1
C1442 RECT_CLOSED 0.850 0.850 0 0 1
C1443 RECT_CLOSED 0.800 0.800 0 0 1
C1444 RECT_CLOSED 0.650 0.650 0 0 1
C1445 RECT_CLOSED 0.880 0.880 0 0 1
C1446 RECT_CLOSED 0.800 0.800 0 0 1
C1447 RECT_CLOSED 0.750 0.750 0 0 1
C1448 RECT_CLOSED 0.800 0.800 0 0 1
C1449 RECT_CLOSED 0.800 0.800 0 0 1
C1450 RECT_CLOSED 1.350 1.350 0 0 1
C1451 RECT_CLOSED 0.700 0.700 0 0 1
C1452 RECT_CLOSED 0.950 0.950 0 0 1
C1453 RECT_CLOSED 0.700 0.700 0 0 1
C1454 RECT_CLOSED 0.900 0.900 0 0 1
C1455 RECT_CLOSED 0.750 0.750 0 0 1
C1456 RECT_CLOSED 0.750 0.750 0 0 1
C1457 RECT_CLOSED 0.950 0.950 0 0 1
C1458 RECT_CLOSED 0.850 0.850 0 0 1
C1459 RECT_CLOSED 0.900 0.900 0 0 1
C1460 RECT_CLOSED 0.750 0.750 0 0 1
C1461 RECT_CLOSED 0.800 0.800 0 0 1
C1462 RECT_CLOSED 1.050 1.050 0 0 1
C1463 RECT_CLOSED 1.150 1.150 0 0 1
C1464 RECT_CLOSED 0.750 0.750 0 0 1
C1465 RECT_CLOSED 1.050 1.050 0 0 1
C1466 RECT_CLOSED 0.700 0.700 0 0 1
C1467 RECT_CLOSED 0.650 0.650 0 0 1
C1468 RECT_CLOSED 0.650 0.650 0 0 1
C1469 RECT_CLOSED 0.700 0.700 0 0 1
C1470 RECT_CLOSED 0.650 0.650 0 0 1
C1471 RECT_CLOSED 0.750 0.750 0 0 1
C1472 RECT_CLOSED 0.700 0.700 0 0 1
C1473 RECT_CLOSED 0.850 0.850 0 0 1
C1474 RECT_CLOSED 0.650 0.650 0 0 1
C1475 RECT_CLOSED 0.800 0.800 0 0 1
C1476 RECT_CLOSED 0.900 0.900 0 0 1
C1477 RECT_CLOSED 0.850 0.850 0 0 1
C1478 RECT_CLOSED 0.650 0.650 0 0 1
C1479 RECT_CLOSED 1.050 1.050 0 0 1
C1480 RECT_CLOSED 0.650 0.650 0 0 1
C1481 RECT_CLOSED 0.650 0.650 0 0 1
C1482 RECT_CLOSED 0.750 0.750 0 0 1
C1483 RECT_CLOSED 0.850 0.850 0 0 1
C1484 RECT_CLOSED 0.800 0.800 0 0 1
C1485 RECT_CLOSED 0.750 0.750 0 0 1
C1486 RECT_CLOSED 0.650 0.650 0 0 1
C1487 RECT_CLOSED 0.700 0.700 0 0 1
C1488 RECT_CLOSED 0.900 0.900 0 0 1
C1489 RECT_CLOSED 0.750 0.750 0 0 1
C1490 RECT_CLOSED 0.800 0.800 0 0 1
C1491 RECT_CLOSED 0.800 0.800 0 0 1
C1492 RECT_CLOSED 0.750 0.750 0 0 1
C1493 RECT_CLOSED 0.820 0.820 0 0 1
C1494 RECT_CLOSED 0.770 0.770 0 0 1
C1495 RECT_CLOSED 0.660 0.660 0 0 1
C1496 RECT_CLOSED 0.630 0.630 0 0 1
C1497 RECT_CLOSED 0.720 0.720 0 0 1
C1498 RECT_CLOSED 0.680 0.680 0 0 1
C1499 RECT_CLOSED 0.990 0.990 0 0 1
C1500 RECT_CLOSED 0.710 0.710 0 0 1
C1501 RECT_CLOSED 0.720 0.720 0 0 1
C1502 RECT_CLOSED 0.580 0.580 0 0 1
C1503 RECT_CLOSED 0.990 0.990 0 0 1
C1504 RECT_CLOSED 0.730 0.730 0 0 1
C1505 RECT_CLOSED 0.530 0.530 0 0 1
C1506 RECT_CLOSED 0.560 0.560 0 0 1
C1507 RECT_CLOSED 0.570 0.570 0 0 1
C1508 RECT_CLOSED 0.880 0.880 0 0 1
C1509 RECT_CLOSED 0.670 0.670 0 0 1
C1510 RECT_CLOSED 0.670 0.670 0 0 1
C1511 RECT_CLOSED 0.870 0.870 0 0 1
C1512 RECT_CLOSED 0.550 0.550 0 0 1
C1513 RECT_CLOSED 0.790 0.790 0 0 1
C1514 RECT_CLOSED 0.700 0.700 0 0 1
C1515 RECT_CLOSED 0.580 0.580 0 0 1
C1516 RECT_CLOSED 0.910 0.910 0 0 1
C1517 RECT_CLOSED 0.710 0.710 0 0 1
C1518 RECT_CLOSED 0.520 0.520 0 0 1
C1519 RECT_CLOSED 0.840 0.840 0 0 1
C1520 RECT_CLOSED 0.950 0.950 0 0 1
C1521 RECT_CLOSED 0.740 0.740 0 0 1
C1522 RECT_CLOSED 0.990 0.990 0 0 1
C1523 RECT_CLOSED 0.610 0.610 0 0 1
C1524 RECT_CLOSED 0.520 0.520 0 0 1
C1525 RECT_CLOSED 0.930 0.930 0 0 1
C1526 RECT_CLOSED 0.750 0.750 0 0 1
C1527 RECT_CLOSED 0.650 0.650 0 0 1
C1528 RECT_CLOSED 0.720 0.720 0 0 1
C1529 RECT_CLOSED 0.950 0.950 0 0 1
C1530 RECT_CLOSED 0.820 0.820 0 0 1
C1531 RECT_CLOSED 1.380 1.380 0 0 1
C1532 RECT_CLOSED 0.680 0.680 0 0 1
C1533 RECT_CLOSED 0.910 0.910 0 0 1
C1534 RECT_CLOSED 0.720 0.720 0 0 1
C1535 RECT_CLOSED 0.760 0.760 0 0 1
C1536 RECT_CLOSED 0.830 0.830 0 0 1
C1537 RECT_CLOSED 0.610 0.610 0 0 1
C1538 RECT_CLOSED 0.750 0.750 0 0 1
C1539 RECT_CLOSED 0.940 0.940 0 0 1
C1540 RECT_CLOSED 0.890 0.890 0 0 1
C1541 RECT_CLOSED 0.610 0.610 0 0 1
C1542 RECT_CLOSED 0.840 0.840 0 0 1
C1543 RECT_CLOSED 0.660 0.660 0 0 1
C1544 RECT_CLOSED 0.990 0.990 0 0 1
C1545 RECT_CLOSED 0.880 0.880 0 0 1
C1546 RECT_CLOSED 0.670 0.670 0 0 1
C1547 RECT_CLOSED 0.700 0.700 0 0 1
C1548 RECT_CLOSED 0.720 0.720 0 0 1
C1549 RECT_CLOSED 0.680 0.680 0 0 1
C1550 RECT_CLOSED 0.600 0.600 0 0 1
C1551 RECT_CLOSED 0.730 0.730 0 0 1
C1552 RECT_CLOSED 0.820 0.820 0 0 1
C1553 RECT_CLOSED 0.750 0.750 0 0 1
C1554 RECT_CLOSED 0.930 0.930 0 0 1
C1555 RECT_CLOSED 0.880 0.880 0 0 1
C1556 RECT_CLOSED 0.970 0.970 0 0 1
C1557 RECT_CLOSED 0.650 0.650 0 0 1
C1558 RECT_CLOSED 0.600 0.600 0 0 1
C1559 RECT_CLOSED 0.930 0.930 0 0 1
C1560 RECT_CLOSED 0.840 0.840 0 0 1
C1561 RECT_CLOSED 1.110 1.110 0 0 1
C1562 RECT_CLOSED 0.730 0.730 0 0 1
C1563 RECT_CLOSED 0.630 0.630 0 0 1
C1564 RECT_CLOSED 0.990 0.990 0 0 1
C1565 RECT_CLOSED 0.860 0.860 0 0 1
C1566 RECT_CLOSED 0.780 0.780 0 0 1
C1567 RECT_CLOSED 0.800 0.800 0 0 1
C1568 RECT_CLOSED 0.560 0.560 0 0 1
C1569 RECT_CLOSED 0.830 0.830 0 0 1
C1570 RECT_CLOSED 0.630 0.630 0 0 1
C1571 RECT_CLOSED 0.660 0.660 0 0 1
C1572 RECT_CLOSED 0.690 0.690 0 0 1
C1573 RECT_CLOSED 0.420 0.420 0 0 1
C1574 RECT_CLOSED 0.910 0.910 0 0 1
C1575 RECT_CLOSED 0.890 0.890 0 0 1
C1576 RECT_CLOSED 0.660 0.660 0 0 1
C1577 RECT_CLOSED 0.550 0.550 0 0 1
C1578 RECT_CLOSED 0.750 0.750 0 0 1
C1579 RECT_CLOSED 0.650 0.650 0 0 1
C1580 RECT_CLOSED 0.600 0.600 0 0 1
C1581 RECT_CLOSED 0.540 0.540 0 0 1
C1582 RECT_CLOSED 0.540 0.540 0 0 1
C1583 RECT_CLOSED 0.590 0.590 0 0 1
C1584 RECT_CLOSED 1.200 1.200 0 0 1
C1585 RECT_CLOSED 0.760 0.760 0 0 1
C1586 RECT_CLOSED 0.800 0.800 0 0 1
C1587 RECT_CLOSED 0.880 0.880 0 0 1
C1588 RECT_CLOSED 0.690 0.690 0 0 1
C1589 RECT_CLOSED 0.580 0.580 0 0 1
C1590 RECT_CLOSED 0.710 0.710 0 0 1
C1591 RECT_CLOSED 0.830 0.830 0 0 1
C1592 RECT_CLOSED 0.750 0.750 0 0 1
C1593 RECT_OPEN 0.480 0.480 0 0 1
C1594 RECT_CLOSED 1.370 1.370 0 0 1
C1595 RECT_CLOSED 0.390 0.390 0 0 1
C1596 RECT_CLOSED 1.110 1.110 0 0 1
C1597 RECT_OPEN 0.650 0.650 0 0 1
C1598 RECT_OPEN 0.450 0.450 0 0 1
C1599 RECT_CLOSED 0.740 0.740 0 0 1
C1600 RECT_OPEN 0.500 0.500 0 0 1
C1601 RECT_OPEN 0.530 0.530 0 0 1
C1602 RECT_OPEN 0.630 0.630 0 0 1
C1603 RECT_OPEN 0.380 0.380 0 0 1
C1604 RECT_CLOSED 1.030 1.030 0 0 1
C1605 RECT_CLOSED 0.640 0.640 0 0 1
C1606 RECT_CLOSED 0.400 0.400 0 0 1
C1607 RECT_CLOSED 0.590 0.590 0 0 1
C1608 RECT_CLOSED 0.530 0.530 0 0 1
C1609 RECT_CLOSED 0.640 0.640 0 0 1
C1610 RECT_CLOSED 0.760 0.760 0 0 1
C1611 RECT_CLOSED 0.910 0.910 0 0 1
C1612 RECT_CLOSED 0.860 0.860 0 0 1
C1613 RECT_CLOSED 0.730 0.730 0 0 1
C1614 RECT_CLOSED 0.550 0.550 0 0 1
C1615 RECT_CLOSED 0.560 0.560 0 0 1
C1616 RECT_CLOSED 0.550 0.550 0 0 1
C1617 RECT_CLOSED 0.850 0.850 0 0 1
C1618 RECT_CLOSED 0.630 0.630 0 0 1
C1619 RECT_CLOSED 0.840 0.840 0 0 1
C1620 RECT_OPEN 0.410 0.410 0 0 1
C1621 RECT_CLOSED 0.710 0.710 0 0 1
C1622 RECT_OPEN 0.430 0.430 0 0 1
C1623 RECT_CLOSED 0.660 0.660 0 0 1
C1624 RECT_CLOSED 0.650 0.650 0 0 1
C1625 RECT_OPEN 0.550 0.550 0 0 1
C1626 RECT_CLOSED 1.520 1.520 0 0 1
C1627 RECT_CLOSED 1.360 1.360 0 0 1
C1628 RECT_CLOSED 0.660 0.660 0 0 1
C1629 RECT_CLOSED 0.730 0.730 0 0 1
C1630 RECT_CLOSED 0.660 0.660 0 0 1
C1631 RECT_CLOSED 0.590 0.590 0 0 1
C1632 RECT_CLOSED 0.880 0.880 0 0 1
C1633 RECT_CLOSED 0.770 0.770 0 0 1
C1634 RECT_CLOSED 0.600 0.600 0 0 1
C1635 RECT_CLOSED 0.870 0.870 0 0 1
C1636 RECT_CLOSED 0.590 0.590 0 0 1
C1637 RECT_OPEN 0.340 0.340 0 0 1
C1638 RECT_OPEN 0.480 0.480 0 0 1
C1639 RECT_CLOSED 0.950 0.950 0 0 1
C1640 RECT_OPEN 0.760 0.760 0 0 1
C1641 RECT_OPEN 0.490 0.490 0 0 1
C1642 RECT_OPEN 0.580 0.580 0 0 1
C1643 RECT_OPEN 0.360 0.360 0 0 1
C1644 RECT_CLOSED 0.630 0.630 0 0 1
C1645 RECT_OPEN 0.440 0.440 0 0 1
C1646 RECT_OPEN 0.430 0.430 0 0 1
C1647 RECT_CLOSED 0.650 0.650 0 0 1
C1648 RECT_CLOSED 0.650 0.650 0 0 1
C1649 RECT_OPEN 0.460 0.460 0 0 1
C1650 RECT_OPEN 0.340 0.340 0 0 1
C1651 RECT_OPEN 0.460 0.460 0 0 1
C1652 RECT_OPEN 0.540 0.540 0 0 1
C1653 RECT_OPEN 0.460 0.460 0 0 1
C1654 RECT_OPEN 0.660 0.660 0 0 1
C1655 RECT_CLOSED 0.680 0.680 0 0 1
C1656 RECT_CLOSED 0.750 0.750 0 0 1
C1657 RECT_OPEN 0.710 0.710 0 0 1
C1658 RECT_CLOSED 0.600 0.600 0 0 1
C1659 RECT_CLOSED 0.750 0.750 0 0 1
C1660 RECT_OPEN 0.250 0.250 0 0 1
C1661 RECT_CLOSED 0.650 0.650 0 0 1
C1662 RECT_CLOSED 1.140 1.140 0 0 1
C1663 RECT_CLOSED 1.530 1.530 0 0 1
C1664 RECT_OPEN 0.630 0.630 0 0 1
C1665 RECT_OPEN 0.370 0.370 0 0 1
C1666 RECT_CLOSED 0.670 0.670 0 0 1
C1667 RECT_CLOSED 0.740 0.740 0 0 1
C1668 RECT_CLOSED 0.690 0.690 0 0 1
C1669 RECT_CLOSED 0.720 0.720 0 0 1
C1670 RECT_CLOSED 0.770 0.770 0 0 1
C1671 RECT_CLOSED 0.800 0.800 0 0 1
C1672 RECT_CLOSED 0.650 0.650 0 0 1
C1673 RECT_CLOSED 0.870 0.870 0 0 1
C1674 RECT_CLOSED 0.570 0.570 0 0 1
C1675 RECT_OPEN 0.680 0.680 0 0 1
C1676 RECT_OPEN 0.470 0.470 0 0 1
C1677 RECT_CLOSED 0.370 0.370 0 0 1
C1678 RECT_OPEN 0.460 0.460 0 0 1
C1679 RECT_OPEN 0.270 0.270 0 0 1
C1680 RECT_OPEN 0.550 0.550 0 0 1
C1681 RECT_OPEN 0.710 0.710 0 0 1
C1682 RECT_CLOSED 0.630 0.630 0 0 1
C1683 RECT_CLOSED 0.740 0.740 0 0 1
C1684 RECT_CLOSED 0.740 0.740 0 0 1
C1685 RECT_OPEN 0.410 0.410 0 0 1
C1686 RECT_CLOSED 0.770 0.770 0 0 1
C1687 RECT_CLOSED 1.010 1.010 0 0 1
C1688 RECT_CLOSED 0.970 0.970 0 0 1
C1689 RECT_CLOSED 0.640 0.640 0 0 1
C1690 RECT_CLOSED 1.090 1.090 0 0 1
C1691 RECT_CLOSED 0.950 0.950 0 0 1
C1692 RECT_CLOSED 0.520 0.520 0 0 1
C1693 RECT_CLOSED 1.050 1.050 0 0 1
C1694 RECT_OPEN 0.590 0.590 0 0 1
C1695 RECT_OPEN 0.290 0.290 0 0 1
C1696 RECT_CLOSED 0.720 0.720 0 0 1
C1697 RECT_CLOSED 0.630 0.630 0 0 1
C1698 RECT_OPEN 0.430 0.430 0 0 1
C1699 RECT_OPEN 0.350 0.350 0 0 1
C1700 RECT_OPEN 0.620 0.620 0 0 1
C1701 RECT_OPEN 0.610 0.610 0 0 1
C1702 RECT_OPEN 0.690 0.690 0 0 1
C1703 RECT_CLOSED 0.740 0.740 0 0 1
C1704 RECT_CLOSED 0.650 0.650 0 0 1
C1705 RECT_CLOSED 0.760 0.760 0 0 1
C1706 RECT_OPEN 0.380 0.380 0 0 1
C1707 RECT_CLOSED 0.710 0.710 0 0 1
C1708 RECT_OPEN 0.370 0.370 0 0 1
C1709 RECT_OPEN 0.400 0.400 0 0 1
C1710 RECT_CLOSED 0.530 0.530 0 0 1
C1711 RECT_OPEN 0.650 0.650 0 0 1
C1712 RECT_OPEN 0.490 0.490 0 0 1
C1713 RECT_OPEN 0.600 0.600 0 0 1
C1714 RECT_OPEN 0.700 0.700 0 0 1
C1715 RECT_OPEN 0.520 0.520 0 0 1
C1716 RECT_CLOSED 0.410 0.410 0 0 1
C1717 RECT_CLOSED 0.720 0.720 0 0 1
C1718 RECT_CLOSED 0.820 0.820 0 0 1
C1719 RECT_OPEN 0.550 0.550 0 0 1
C1720 RECT_CLOSED 0.510 0.510 0 0 1
C1721 RECT_CLOSED 0.850 0.850 0 0 1
C1722 RECT_OPEN 0.440 0.440 0 0 1
C1723 RECT_CLOSED 0.650 0.650 0 0 1
C1724 RECT_OPEN 0.360 0.360 0 0 1
C1725 RECT_CLOSED 0.650 0.650 0 0 1
C1726 RECT_OPEN 0.420 0.420 0 0 1
C1727 RECT_OPEN 0.560 0.560 0 0 1
C1728 RECT_OPEN 0.460 0.460 0 0 1
C1729 RECT_OPEN 0.280 0.280 0 0 1
C1730 RECT_CLOSED 0.610 0.610 0 0 1
C1731 RECT_OPEN 0.400 0.400 0 0 1
C1732 RECT_CLOSED 0.710 0.710 0 0 1
C1733 RECT_CLOSED 0.710 0.710 0 0 1
C1734 RECT_OPEN 0.450 0.450 0 0 1
C1735 RECT_OPEN 0.530 0.530 0 0 1
C1736 RECT_OPEN 0.490 0.490 0 0 1
C1737 RECT_OPEN 0.540 0.540 0 0 1
C1738 RECT_OPEN 0.520 0.520 0 0 1
C1739 RECT_OPEN 0.580 0.580 0 0 1
C1740 RECT_OPEN 0.560 0.560 0 0 1
C1741 RECT_OPEN 0.560 0.560 0 0 1
C1742 RECT_CLOSED 0.650 0.650 0 0 1
C1743 RECT_CLOSED 0.590 0.590 0 0 1
C1744 RECT_CLOSED 0.720 0.720 0 0 1
C1745 RECT_CLOSED 1.020 1.020 0 0 1
C1746 RECT_OPEN 0.560 0.560 0 0 1
C1747 RECT_CLOSED 0.900 0.900 0 0 1
C1748 RECT_CLOSED 0.900 0.900 0 0 1
C1749 RECT_CLOSED 0.900 0.900 0 0 1
C1750 RECT_CLOSED 0.900 0.900 0 0 1
C1751 RECT_CLOSED 0.900 0.900 0 0 1
C1752 RECT_CLOSED 0.900 0.900 0 0 1
C1753 RECT_CLOSED 0.900 0.900 0 0 1
C1754 RECT_CLOSED 0.900 0.900 0 0 1
C1755 RECT_CLOSED 1.500 1.500 0 0 1
C1756 RECT_CLOSED 0.900 0.900 0 0 1
C1757 RECT_CLOSED 0.900 0.900 0 0 1
C1758 RECT_CLOSED 0.900 0.900 0 0 1
C1759 RECT_CLOSED 0.900 0.900 0 0 1
C1760 RECT_CLOSED 0.900 0.900 0 0 1
C1761 RECT_CLOSED 0.900 0.900 0 0 1
C1762 RECT_CLOSED 0.900 0.900 0 0 1
C1763 RECT_CLOSED 1.040 1.040 0 0 1
C1764 RECT_CLOSED 0.900 0.900 0 0 1
C1765 RECT_CLOSED 1.060 1.060 0 0 1
C1766 RECT_CLOSED 1.200 1.200 0 0 1
C1767 RECT_CLOSED 0.900 0.900 0 0 1
C1768 RECT_CLOSED 0.900 0.900 0 0 1
C1769 RECT_CLOSED 0.900 0.900 0 0 1
C1770 RECT_CLOSED 0.900 0.900 0 0 1
C1771 RECT_CLOSED 0.900 0.900 0 0 1
C1772 RECT_CLOSED 0.800 0.800 0 0 1
C1773 RECT_CLOSED 1.200 1.200 0 0 1
C1774 RECT_CLOSED 0.300 0.400 0 0 1
C1775 RECT_CLOSED 0.300 0.400 0 0 1
C1776 RECT_CLOSED 1.200 1.200 0 0 1
C1777 RECT_CLOSED 0.900 0.900 0 0 1
C1778 RECT_CLOSED 0.300 0.400 0 0 1
C1779 RECT_CLOSED 0.900 0.900 0 0 1
C1780 RECT_CLOSED 0.900 0.900 0 0 1
C1781 RECT_CLOSED 0.900 0.900 0 0 1
C1782 RECT_CLOSED 0.900 0.900 0 0 1
C1783 RECT_CLOSED 0.700 0.600 0 0 1
C1784 RECT_CLOSED 0.900 0.900 0 0 1
C1785 RECT_CLOSED 0.800 0.800 0 0 1
C1786 RECT_CLOSED 0.900 0.900 0 0 1
C1787 RECT_CLOSED 1.070 1.070 0 0 1
C1788 RECT_CLOSED 0.900 0.900 0 0 1
C1789 RECT_CLOSED 1.500 1.500 0 0 1
C1790 RECT_CLOSED 1.500 1.500 0 0 1
C1791 RECT_CLOSED 1.200 1.200 0 0 1
C1792 RECT_CLOSED 1.090 1.090 0 0 1
C1793 RECT_CLOSED 1.200 1.200 0 0 1
C1794 RECT_CLOSED 0.900 0.900 0 0 1
C1795 RECT_CLOSED 0.900 0.900 0 0 1
C1796 RECT_CLOSED 0.900 0.900 0 0 1
C1797 RECT_CLOSED 0.900 0.900 0 0 1
C1798 RECT_CLOSED 0.900 0.900 0 0 1
C1799 RECT_CLOSED 0.900 0.900 0 0 1
C1800 RECT_CLOSED 0.900 0.900 0 0 1
C1801 RECT_CLOSED 1.200 1.200 0 0 1
C1802 RECT_OPEN 3.200 3.200 0 0 1
C1803 RECT_CLOSED 1.200 1.200 0 0 1
C1804 RECT_CLOSED 0.900 0.900 0 0 1
C1805 RECT_CLOSED 0.900 0.900 0 0 1
C1806 RECT_CLOSED 0.900 0.900 0 0 1
C1807 RECT_CLOSED 0.900 0.900 0 0 1
C1808 RECT_CLOSED 0.900 0.900 0 0 1
C1809 RECT_CLOSED 1.200 1.200 0 0 1
C1810 RECT_CLOSED 0.900 0.900 0 0 1
C1811 RECT_CLOSED 0.900 0.900 0 0 1
C1812 RECT_CLOSED 0.700 0.600 0 0 1
C1813 RECT_CLOSED 0.900 0.900 0 0 1
C1814 RECT_CLOSED 1.200 1.200 0 0 1
C1815 RECT_CLOSED 0.700 0.600 0 0 1
C1816 RECT_CLOSED 0.900 0.900 0 0 1
C1817 RECT_CLOSED 0.900 0.900 0 0 1
C1818 RECT_CLOSED 1.800 0.600 0 0 1
C1819 RECT_CLOSED 0.600 0.600 0 0 1
C1820 RECT_CLOSED 1.090 1.090 0 0 1
C1821 RECT_CLOSED 1.500 1.500 0 0 1
C1822 RECT_CLOSED 1.080 1.080 0 0 1
C1823 RECT_CLOSED 0.900 0.900 0 0 1
C1824 RECT_CLOSED 1.500 1.500 0 0 1
C1825 RECT_CLOSED 1.200 1.200 0 0 1
C1826 RECT_CLOSED 1.020 1.020 0 0 1
C1827 RECT_OPEN 1.800 0.600 0 0 1
C1828 RECT_OPEN 1.800 0.600 0 0 1
C1829 RECT_CLOSED 1.200 1.200 0 0 1
C1830 RECT_CLOSED 1.020 1.020 0 0 1
C1831 RECT_CLOSED 1.800 0.600 0 0 1
C1832 RECT_CLOSED 1.040 1.040 0 0 1
C1833 RECT_CLOSED 0.900 0.900 0 0 1
C1834 RECT_CLOSED 0.900 0.900 0 0 1
C1835 RECT_CLOSED 1.010 1.010 0 0 1
C1836 RECT_CLOSED 1.030 1.030 0 0 1
C1837 RECT_CLOSED 1.120 1.120 0 0 1
C1838 RECT_CLOSED 1.500 1.500 0 0 1
C1839 RECT_CLOSED 0.900 0.900 0 0 1
C1840 RECT_CLOSED 0.600 0.600 0 0 1
C1841 RECT_CLOSED 0.900 0.900 0 0 1
C1842 RECT_CLOSED 1.060 1.060 0 0 1
C1843 RECT_CLOSED 1.200 1.200 0 0 1
C1844 RECT_CLOSED 1.600 1.600 0 0 1
C1845 RECT_CLOSED 0.900 0.900 0 0 1
C1846 RECT_CLOSED 0.900 0.900 0 0 1
C1847 RECT_CLOSED 1.400 1.400 0 0 1
C1848 RECT_CLOSED 1.200 1.200 0 0 1
C1849 RECT_CLOSED 1.200 1.200 0 0 1
C1850 RECT_CLOSED 1.030 1.030 0 0 1
C1851 RECT_CLOSED 1.200 1.200 0 0 1
C1852 RECT_CLOSED 0.800 0.800 0 0 1
C1853 RECT_CLOSED 1.060 1.060 0 0 1
C1854 RECT_CLOSED 1.200 1.200 0 0 1
C1855 RECT_CLOSED 1.030 1.030 0 0 1
C1856 RECT_CLOSED 0.900 0.900 0 0 1
C1857 RECT_CLOSED 0.900 0.900 0 0 1
C1858 RECT_CLOSED 0.900 0.900 0 0 1
C1859 RECT_CLOSED 0.800 0.800 0 0 1
C1860 RECT_CLOSED 1.060 1.060 0 0 1
C1861 RECT_CLOSED 1.800 0.600 0 0 1
C1862 RECT_CLOSED 0.900 0.900 0 0 1
C1863 RECT_CLOSED 1.200 1.200 0 0 1
C1864 RECT_CLOSED 0.800 0.600 0 0 1
C1865 RECT_CLOSED 1.070 1.070 0 0 1
C1866 RECT_CLOSED 1.800 0.600 0 0 1
C1867 RECT_CLOSED 1.130 1.130 0 0 1
C1868 RECT_CLOSED 1.050 1.050 0 0 1
C1869 RECT_CLOSED 0.900 1.200 0 0 1
C1870 RECT_CLOSED 0.900 0.900 0 0 1
C1871 RECT_CLOSED 0.900 0.900 0 0 1
C1872 RECT_CLOSED 1.350 1.350 0 0 1
C1873 RECT_CLOSED 0.400 0.400 0 0 1
C1874 RECT_CLOSED 0.900 0.900 0 0 1
C1875 RECT_CLOSED 0.710 0.710 0 0 1
C1876 RECT_CLOSED 1.070 1.070 0 0 1
C1877 RECT_CLOSED 0.400 0.400 0 0 1
C1878 RECT_CLOSED 1.100 1.100 0 0 1
C1879 RECT_CLOSED 1.200 1.200 0 0 1
C1880 RECT_CLOSED 0.900 0.900 0 0 1
C1881 RECT_CLOSED 0.900 0.900 0 0 1
C1882 RECT_CLOSED 1.600 1.600 0 0 1
C1883 RECT_CLOSED 0.900 0.900 0 0 1
C1884 RECT_CLOSED 0.600 0.600 0 0 1
C1885 RECT_CLOSED 0.600 0.600 0 0 1
C1886 RECT_CLOSED 1.600 1.600 0 0 1
C1887 RECT_CLOSED 1.060 1.060 0 0 1
C1888 RECT_OPEN 0.500 0.500 0 0 1
C1889 RECT_CLOSED 1.200 1.200 0 0 1
C1890 RECT_CLOSED 1.060 1.060 0 0 1
C1891 RECT_CLOSED 0.600 0.600 0 0 1
C1892 RECT_CLOSED 0.500 0.500 0 0 1
C1893 RECT_CLOSED 0.500 0.500 0 0 1
C1894 RECT_CLOSED 0.500 0.500 0 0 1
C1895 RECT_CLOSED 0.700 0.700 0 0 1
C1896 RECT_CLOSED 0.800 0.800 0 0 1
C1897 RECT_CLOSED 1.500 1.500 0 0 1
C1898 RECT_CLOSED 1.500 1.500 0 0 1
C1899 RECT_CLOSED 0.900 0.900 0 0 1
C1900 RECT_CLOSED 0.900 0.900 0 0 1
C1901 RECT_CLOSED 0.600 0.600 0 0 1
C1902 RECT_CLOSED 1.800 1.800 0 0 1
C1903 RECT_CLOSED 1.800 1.800 0 0 1
C1904 RECT_CLOSED 0.900 0.900 0 0 1
C1905 RECT_CLOSED 0.900 0.900 0 0 1
C1906 RECT_CLOSED 0.900 0.900 0 0 1
C1907 RECT_CLOSED 0.900 0.900 0 0 1
C1908 RECT_CLOSED 0.700 0.600 0 0 1
C1909 RECT_CLOSED 0.700 0.600 0 0 1
C1910 RECT_CLOSED 0.700 0.600 0 0 1
C1911 RECT_CLOSED 0.900 0.900 0 0 1
C1912 RECT_CLOSED 0.700 0.600 0 0 1
C1913 RECT_CLOSED 0.700 0.600 0 0 1
C1914 RECT_CLOSED 0.900 0.900 0 0 1
C1915 RECT_CLOSED 0.700 0.600 0 0 1
C1916 RECT_CLOSED 0.700 0.600 0 0 1
C1917 RECT_CLOSED 0.700 0.600 0 0 1
C1918 RECT_CLOSED 0.700 0.600 0 0 1
C1919 RECT_CLOSED 1.500 1.500 0 0 1
C1920 RECT_CLOSED 1.500 1.500 0 0 1
C1921 RECT_CLOSED 1.300 1.300 0 0 1
C1922 RECT_CLOSED 1.600 1.600 0 0 1
C1923 RECT_CLOSED 0.700 0.600 0 0 1
C1924 RECT_CLOSED 1.200 1.200 0 0 1
C1925 RECT_CLOSED 1.100 1.100 0 0 1
C1926 RECT_CLOSED 0.760 0.760 0 0 1
C1927 RECT_CLOSED 0.650 0.650 0 0 1
C1928 RECT_CLOSED 0.650 0.650 0 0 1
C1929 RECT_CLOSED 0.750 0.750 0 0 1
C1930 RECT_OPEN 0.650 0.650 0 0 1
C1931 RECT_CLOSED 0.400 0.400 0 0 1
C1932 RECT_OPEN 0.750 0.750 0 0 1
C1933 RECT_CLOSED 0.550 0.550 0 0 1
C1934 RECT_CLOSED 0.500 0.500 0 0 1
C1935 RECT_CLOSED 0.600 0.600 0 0 1
C1936 RECT_CLOSED 0.750 0.750 0 0 1
C1937 RECT_CLOSED 0.750 0.750 0 0 1
C1938 RECT_CLOSED 0.500 0.500 0 0 1
C1939 RECT_OPEN 0.950 0.950 0 0 1
C1940 RECT_CLOSED 0.950 0.950 0 0 1
C1941 RECT_CLOSED 0.750 0.750 0 0 1
C1942 RECT_CLOSED 0.650 0.650 0 0 1
C1943 RECT_CLOSED 0.450 0.450 0 0 1
C1944 RECT_OPEN 0.750 0.750 0 0 1
C1945 RECT_CLOSED 0.750 0.750 0 0 1
C1946 RECT_CLOSED 0.600 0.600 0 0 1
C1947 RECT_CLOSED 0.600 0.600 0 0 1
C1948 RECT_CLOSED 0.600 0.600 0 0 1
C1949 RECT_CLOSED 0.350 0.350 0 0 1
C1950 RECT_CLOSED 0.750 0.750 0 0 1
C1951 RECT_OPEN 0.600 0.600 0 0 1
C1952 RECT_CLOSED 0.750 0.750 0 0 1
C1953 RECT_CLOSED 0.650 0.650 0 0 1
C1954 RECT_CLOSED 0.900 0.900 0 0 1
C1955 RECT_CLOSED 0.650 0.650 0 0 1
C1956 RECT_CLOSED 0.700 0.700 0 0 1
C1957 RECT_CLOSED 0.800 0.800 0 0 1
C1958 RECT_CLOSED 0.550 0.550 0 0 1
C1959 RECT_CLOSED 0.450 0.450 0 0 1
C1960 RECT_CLOSED 1.050 1.050 0 0 1
C1961 RECT_CLOSED 0.600 0.600 0 0 1
C1962 RECT_CLOSED 0.350 0.350 0 0 1
C1963 RECT_CLOSED 0.950 0.950 0 0 1
C1964 RECT_CLOSED 0.400 0.400 0 0 1
C1965 RECT_CLOSED 0.800 0.800 0 0 1
C1966 RECT_CLOSED 1.050 1.050 0 0 1
C1967 RECT_CLOSED 0.550 0.550 0 0 1
C1968 RECT_CLOSED 0.750 0.750 0 0 1
C1969 RECT_CLOSED 0.500 0.500 0 0 1
C1970 RECT_CLOSED 0.500 0.500 0 0 1
C1971 RECT_CLOSED 0.550 0.550 0 0 1
C1972 RECT_CLOSED 0.700 0.700 0 0 1
C1973 RECT_CLOSED 0.250 0.250 0 0 1
C1974 RECT_CLOSED 0.600 0.600 0 0 1
C1975 RECT_CLOSED 0.650 0.650 0 0 1
C1976 RECT_CLOSED 0.650 0.650 0 0 1
C1977 RECT_CLOSED 0.750 0.750 0 0 1
C1978 RECT_CLOSED 0.950 0.950 0 0 1
C1979 RECT_CLOSED 0.600 0.600 0 0 1
C1980 RECT_CLOSED 0.600 0.600 0 0 1
C1981 RECT_CLOSED 0.600 0.600 0 0 1
C1982 RECT_CLOSED 0.950 0.950 0 0 1
C1983 RECT_OPEN 0.300 0.300 0 0 1
C1984 RECT_OPEN 0.300 0.300 0 0 1
C1985 RECT_OPEN 0.600 0.600 0 0 1
C1986 RECT_OPEN 0.300 0.300 0 0 1
C1987 RECT_OPEN 0.250 0.250 0 0 1
C1988 RECT_OPEN 0.350 0.350 0 0 1
C1989 RECT_OPEN 0.350 0.350 0 0 1
C1990 RECT_OPEN 0.450 0.450 0 0 1
C1991 RECT_OPEN 0.300 0.300 0 0 1
C1992 RECT_OPEN 0.250 0.250 0 0 1
C1993 RECT_OPEN 0.300 0.300 0 0 1
C1994 RECT_OPEN 0.600 0.600 0 0 1
C1995 RECT_OPEN 0.600 0.600 0 0 1
C1996 RECT_CLOSED 0.550 0.550 0 0 1
C1997 RECT_OPEN 0.650 0.650 0 0 1
C1998 RECT_CLOSED 0.650 0.650 0 0 1
C1999 RECT_CLOSED 0.650 0.650 0 0 1
C2000 RECT_CLOSED 0.950 0.950 0 0 1
C2001 RECT_CLOSED 0.550 0.550 0 0 1
C2002 RECT_CLOSED 0.750 0.750 0 0 1
C2003 RECT_CLOSED 0.600 0.600 0 0 1
C2004 RECT_CLOSED 1.150 1.150 0 0 1
C2005 RECT_CLOSED 0.950 0.950 0 0 1
C2006 RECT_CLOSED 0.750 0.750 0 0 1
C2007 RECT_CLOSED 1.050 1.050 0 0 1
C2008 RECT_CLOSED 0.950 0.950 0 0 1
C2009 RECT_CLOSED 0.650 0.650 0 0 1
C2010 RECT_CLOSED 1.450 1.450 0 0 1
C2011 RECT_CLOSED 0.850 0.850 0 0 1
C2012 RECT_OPEN 0.750 0.750 0 0 1
C2013 RECT_CLOSED 0.600 0.600 0 0 1
C2014 RECT_CLOSED 0.550 0.550 0 0 1
C2015 RECT_CLOSED 0.900 0.900 0 0 1
C2016 RECT_CLOSED 0.550 0.550 0 0 1
C2017 RECT_CLOSED 0.950 0.950 0 0 1
C2018 RECT_OPEN 0.450 0.450 0 0 1
C2019 RECT_CLOSED 0.600 0.600 0 0 1
C2020 RECT_OPEN 0.400 0.400 0 0 1
C2021 RECT_CLOSED 0.800 0.800 0 0 1
C2022 RECT_CLOSED 0.600 0.600 0 0 1
C2023 RECT_CLOSED 0.750 0.750 0 0 1
C2024 RECT_CLOSED 0.880 0.880 0 0 1
C2025 RECT_CLOSED 0.850 0.850 0 0 1
C2026 RECT_CLOSED 0.510 0.510 0 0 1
C2027 RECT_CLOSED 0.800 0.800 0 0 1
C2028 RECT_CLOSED 0.650 0.650 0 0 1
C2029 RECT_CLOSED 0.570 0.570 0 0 1
C2030 RECT_CLOSED 0.650 0.650 0 0 1
C2031 RECT_CLOSED 0.550 0.550 0 0 1
C2032 RECT_CLOSED 0.700 0.700 0 0 1
C2033 RECT_CLOSED 0.950 0.950 0 0 1
C2034 RECT_CLOSED 0.650 0.650 0 0 1
C2035 RECT_CLOSED 0.650 0.650 0 0 1
C2036 RECT_CLOSED 0.650 0.650 0 0 1
C2037 RECT_CLOSED 0.750 0.750 0 0 1
C2038 RECT_CLOSED 0.600 0.600 0 0 1
C2039 RECT_CLOSED 0.700 0.700 0 0 1
C2040 RECT_CLOSED 0.950 0.950 0 0 1
C2041 RECT_CLOSED 0.650 0.650 0 0 1
C2042 RECT_CLOSED 0.650 0.650 0 0 1
C2043 RECT_CLOSED 0.550 0.550 0 0 1
C2044 RECT_CLOSED 0.820 0.820 0 0 1
C2045 RECT_CLOSED 0.700 0.700 0 0 1
C2046 RECT_CLOSED 0.650 0.650 0 0 1
C2047 RECT_CLOSED 0.750 0.750 0 0 1
C2048 RECT_CLOSED 1.050 1.050 0 0 1
C2049 RECT_CLOSED 0.500 0.500 0 0 1
C2050 RECT_CLOSED 0.600 0.600 0 0 1
C2051 RECT_CLOSED 0.650 0.650 0 0 1
C2052 RECT_CLOSED 0.450 0.450 0 0 1
C2053 RECT_CLOSED 1.150 1.150 0 0 1
C2054 RECT_CLOSED 0.650 0.650 0 0 1
C2055 RECT_CLOSED 0.750 0.750 0 0 1
C2056 RECT_CLOSED 0.350 0.350 0 0 1
C2057 RECT_CLOSED 0.250 0.250 0 0 1
C2058 RECT_CLOSED 0.300 0.300 0 0 1
C2059 RECT_CLOSED 0.350 0.350 0 0 1
C2060 RECT_CLOSED 0.650 0.650 0 0 1
C2061 RECT_CLOSED 0.750 0.750 0 0 1
C2062 RECT_CLOSED 0.850 0.850 0 0 1
C2063 RECT_CLOSED 0.750 0.750 0 0 1
C2064 RECT_CLOSED 0.500 0.500 0 0 1
C2065 RECT_CLOSED 0.450 0.450 0 0 1
C2066 RECT_CLOSED 0.850 0.850 0 0 1
C2067 RECT_CLOSED 0.750 0.750 0 0 1
C2068 RECT_CLOSED 0.750 0.750 0 0 1
C2069 RECT_CLOSED 1.050 1.050 0 0 1
C2070 RECT_CLOSED 1.150 1.150 0 0 1
C2071 RECT_CLOSED 0.850 0.850 0 0 1
C2072 RECT_CLOSED 0.850 0.850 0 0 1
C2073 RECT_CLOSED 0.550 0.550 0 0 1
C2074 RECT_CLOSED 1.150 1.150 0 0 1
C2075 RECT_CLOSED 0.750 0.750 0 0 1
C2076 RECT_CLOSED 0.650 0.650 0 0 1
C2077 RECT_CLOSED 0.900 0.900 0 0 1
C2078 RECT_CLOSED 0.750 0.750 0 0 1
C2079 RECT_CLOSED 0.900 0.900 0 0 1
C2080 RECT_CLOSED 0.750 0.750 0 0 1
C2081 RECT_CLOSED 0.650 0.650 0 0 1
C2082 RECT_CLOSED 0.650 0.650 0 0 1
C2083 RECT_CLOSED 0.950 0.950 0 0 1
C2084 RECT_CLOSED 0.950 0.950 0 0 1
C2085 RECT_CLOSED 0.700 0.700 0 0 1
C2086 RECT_CLOSED 0.750 0.750 0 0 1
C2087 RECT_CLOSED 0.750 0.750 0 0 1
C2088 RECT_CLOSED 0.700 0.700 0 0 1
C2089 RECT_CLOSED 0.650 0.650 0 0 1
C2090 RECT_CLOSED 0.650 0.650 0 0 1
C2091 RECT_CLOSED 0.550 0.550 0 0 1
C2092 RECT_CLOSED 0.700 0.700 0 0 1
C2093 RECT_CLOSED 0.700 0.700 0 0 1
C2094 RECT_CLOSED 0.600 0.600 0 0 1
C2095 RECT_CLOSED 0.800 0.800 0 0 1
C2096 RECT_CLOSED 0.900 0.900 0 0 1
C2097 RECT_CLOSED 0.550 0.550 0 0 1
C2098 RECT_CLOSED 0.500 0.500 0 0 1
C2099 RECT_CLOSED 0.900 0.900 0 0 1
C2100 RECT_CLOSED 0.650 0.650 0 0 1
C2101 RECT_CLOSED 0.950 0.950 0 0 1
C2102 RECT_CLOSED 0.700 0.700 0 0 1
C2103 RECT_CLOSED 0.750 0.750 0 0 1
C2104 RECT_CLOSED 0.300 0.300 0 0 1
C2105 RECT_CLOSED 0.450 0.450 0 0 1
C2106 RECT_CLOSED 0.400 0.400 0 0 1
C2107 RECT_CLOSED 0.450 0.450 0 0 1
C2108 RECT_CLOSED 0.350 0.350 0 0 1
C2109 RECT_CLOSED 0.500 0.500 0 0 1
C2110 RECT_CLOSED 0.400 0.400 0 0 1
C2111 RECT_CLOSED 0.450 0.450 0 0 1
C2112 RECT_CLOSED 0.400 0.400 0 0 1
C2113 RECT_CLOSED 0.350 0.350 0 0 1
C2114 RECT_OPEN 0.500 0.500 0 0 1
C2115 RECT_CLOSED 0.350 0.350 0 0 1
C2116 RECT_OPEN 0.350 0.350 0 0 1
C2117 RECT_OPEN 0.300 0.300 0 0 1
C2118 RECT_OPEN 0.300 0.300 0 0 1
C2119 RECT_OPEN 0.500 0.500 0 0 1
C2120 RECT_CLOSED 0.450 0.450 0 0 1
C2121 RECT_CLOSED 0.400 0.400 0 0 1
C2122 RECT_CLOSED 0.650 0.650 0 0 1
C2123 RECT_CLOSED 0.400 0.400 0 0 1
C2124 RECT_CLOSED 0.450 0.450 0 0 1
C2125 RECT_CLOSED 0.500 0.500 0 0 1
C2126 RECT_CLOSED 0.900 0.900 0 0 1
C2127 RECT_CLOSED 0.850 0.850 0 0 1
C2128 RECT_CLOSED 0.450 0.450 0 0 1
C2129 RECT_CLOSED 0.650 0.650 0 0 1
C2130 RECT_CLOSED 0.500 0.500 0 0 1
C2131 RECT_CLOSED 0.450 0.450 0 0 1
C2132 RECT_CLOSED 0.700 0.700 0 0 1
C2133 RECT_CLOSED 0.700 0.700 0 0 1
C2134 RECT_CLOSED 0.600 0.600 0 0 1
C2135 RECT_CLOSED 0.450 0.450 0 0 1
C2136 RECT_CLOSED 0.750 0.750 0 0 1
C2137 RECT_CLOSED 0.750 0.750 0 0 1
C2138 RECT_CLOSED 0.550 0.550 0 0 1
C2139 RECT_CLOSED 0.650 0.650 0 0 1
C2140 RECT_CLOSED 0.950 0.950 0 0 1
C2141 RECT_CLOSED 0.750 0.750 0 0 1
C2142 RECT_CLOSED 0.350 0.350 0 0 1
C2143 RECT_CLOSED 0.950 0.950 0 0 1
C2144 RECT_CLOSED 0.750 0.750 0 0 1
C2145 RECT_CLOSED 1.050 1.050 0 0 1
C2146 RECT_CLOSED 0.850 0.850 0 0 1
C2147 RECT_CLOSED 0.750 0.750 0 0 1
C2148 RECT_CLOSED 1.050 1.050 0 0 1
C2149 RECT_CLOSED 0.700 0.700 0 0 1
C2150 RECT_CLOSED 0.950 0.950 0 0 1
C2151 RECT_CLOSED 0.650 0.650 0 0 1
C2152 RECT_CLOSED 0.550 0.550 0 0 1
C2153 RECT_CLOSED 0.750 0.750 0 0 1
C2154 RECT_CLOSED 0.750 0.750 0 0 1
C2155 RECT_CLOSED 0.700 0.700 0 0 1
C2156 RECT_CLOSED 0.750 0.750 0 0 1
C2157 RECT_CLOSED 0.800 0.800 0 0 1
C2158 RECT_CLOSED 0.750 0.750 0 0 1
C2159 RECT_CLOSED 0.750 0.750 0 0 1
C2160 RECT_CLOSED 1.050 1.050 0 0 1
C2161 RECT_CLOSED 0.700 0.700 0 0 1
C2162 RECT_CLOSED 0.650 0.650 0 0 1
C2163 RECT_CLOSED 1.300 1.300 0 0 1
C2164 RECT_CLOSED 0.750 0.750 0 0 1
C2165 RECT_CLOSED 0.550 0.550 0 0 1
C2166 RECT_CLOSED 0.950 0.950 0 0 1
C2167 RECT_OPEN 0.350 0.350 0 0 1
C2168 RECT_OPEN 0.250 0.250 0 0 1
C2169 RECT_OPEN 0.950 0.950 0 0 1
C2170 RECT_OPEN 0.250 0.250 0 0 1
C2171 RECT_OPEN 0.260 0.260 0 0 1
C2172 RECT_OPEN 0.400 0.400 0 0 1
C2173 RECT_OPEN 0.950 0.950 0 0 1
C2174 RECT_CLOSED 0.700 0.700 0 0 1
C2175 RECT_CLOSED 0.650 0.650 0 0 1
C2176 RECT_CLOSED 0.950 0.950 0 0 1
C2177 RECT_CLOSED 1.150 1.150 0 0 1
C2178 RECT_CLOSED 0.950 0.950 0 0 1
C2179 RECT_CLOSED 0.530 0.530 0 0 1
C2180 RECT_CLOSED 0.800 0.800 0 0 1
C2181 RECT_CLOSED 0.560 0.560 0 0 1
C2182 RECT_OPEN 1.150 1.150 0 0 1
C2183 RECT_OPEN 1.850 1.850 0 0 1
C2184 RECT_CLOSED 0.600 0.600 0 0 1
C2185 RECT_OPEN 0.800 0.800 0 0 1
C2186 RECT_CLOSED 0.750 0.750 0 0 1
C2187 RECT_CLOSED 0.790 0.790 0 0 1
C2188 RECT_CLOSED 0.650 0.650 0 0 1
C2189 RECT_CLOSED 0.750 0.750 0 0 1
C2190 RECT_CLOSED 0.600 0.600 0 0 1
C2191 RECT_CLOSED 0.800 0.800 0 0 1
C2192 RECT_CLOSED 0.750 0.750 0 0 1
C2193 RECT_CLOSED 0.850 0.850 0 0 1
C2194 RECT_CLOSED 0.750 0.750 0 0 1
C2195 RECT_CLOSED 0.650 0.650 0 0 1
C2196 RECT_CLOSED 0.700 0.700 0 0 1
C2197 RECT_OPEN 0.450 0.450 0 0 1
C2198 RECT_OPEN 0.450 0.450 0 0 1
C2199 RECT_CLOSED 0.850 0.850 0 0 1
C2200 RECT_CLOSED 0.650 0.650 0 0 1
C2201 RECT_CLOSED 0.750 0.750 0 0 1
C2202 RECT_CLOSED 1.200 1.200 0 0 1
C2203 RECT_CLOSED 0.450 0.450 0 0 1
C2204 RECT_CLOSED 0.750 0.750 0 0 1
C2205 RECT_CLOSED 0.900 0.900 0 0 1
C2206 RECT_CLOSED 0.550 0.550 0 0 1
C2207 RECT_CLOSED 0.510 0.510 0 0 1
C2208 RECT_CLOSED 0.750 0.750 0 0 1
C2209 RECT_CLOSED 0.520 0.520 0 0 1
C2210 RECT_CLOSED 0.850 0.850 0 0 1
C2211 RECT_CLOSED 0.650 0.650 0 0 1
C2212 RECT_CLOSED 0.450 0.450 0 0 1
C2213 RECT_CLOSED 1.450 1.450 0 0 1
C2214 RECT_CLOSED 0.600 0.600 0 0 1
C2215 RECT_OPEN 0.600 0.600 0 0 1
C2216 RECT_OPEN 0.750 0.750 0 0 1
C2217 RECT_OPEN 0.450 0.450 0 0 1
C2218 RECT_CLOSED 0.300 0.300 0 0 1
C2219 RECT_OPEN 0.400 0.400 0 0 1
C2220 RECT_CLOSED 1.050 1.050 0 0 1
C2221 RECT_CLOSED 0.750 0.750 0 0 1
C2222 RECT_OPEN 0.300 0.300 0 0 1
C2223 RECT_OPEN 0.300 0.300 0 0 1
C2224 RECT_OPEN 0.300 0.300 0 0 1
C2225 RECT_OPEN 0.500 0.500 0 0 1
C2226 RECT_OPEN 0.850 0.850 0 0 1
C2227 RECT_OPEN 0.650 0.650 0 0 1
C2228 RECT_CLOSED 0.450 0.450 0 0 1
C2229 RECT_CLOSED 0.600 0.600 0 0 1
C2230 RECT_CLOSED 0.350 0.350 0 0 1
C2231 RECT_CLOSED 0.700 0.700 0 0 1
C2232 RECT_CLOSED 0.700 0.700 0 0 1
C2233 RECT_OPEN 0.500 0.500 0 0 1
C2234 RECT_CLOSED 1.200 1.200 0 0 1
C2235 RECT_CLOSED 0.950 0.950 0 0 1
C2236 RECT_CLOSED 0.850 0.850 0 0 1
C2237 RECT_CLOSED 0.450 0.450 0 0 1
C2238 RECT_CLOSED 0.660 0.660 0 0 1
C2239 RECT_CLOSED 0.610 0.610 0 0 1
C2240 RECT_CLOSED 0.600 0.600 0 0 1
C2241 RECT_CLOSED 0.620 0.620 0 0 1
C2242 RECT_CLOSED 0.680 0.680 0 0 1
C2243 RECT_CLOSED 0.680 0.680 0 0 1
C2244 RECT_CLOSED 0.700 0.700 0 0 1
C2245 RECT_CLOSED 0.780 0.780 0 0 1
C2246 RECT_CLOSED 0.760 0.760 0 0 1
C2247 RECT_CLOSED 0.760 0.760 0 0 1
C2248 RECT_CLOSED 0.760 0.760 0 0 1
C2249 RECT_CLOSED 0.750 0.750 0 0 1
C2250 RECT_CLOSED 0.500 0.500 0 0 1
C2251 RECT_CLOSED 0.560 0.560 0 0 1
C2252 RECT_CLOSED 0.300 0.300 0 0 1
C2253 RECT_CLOSED 0.850 0.850 0 0 1
C2254 RECT_CLOSED 0.850 0.850 0 0 1
C2255 RECT_CLOSED 0.700 0.700 0 0 1
C2256 RECT_CLOSED 0.600 0.600 0 0 1
C2257 RECT_OPEN 0.600 0.600 0 0 1
C2258 RECT_CLOSED 0.680 0.680 0 0 1
C2259 RECT_CLOSED 0.500 0.500 0 0 1
C2260 RECT_CLOSED 0.550 0.550 0 0 1
C2261 RECT_CLOSED 0.750 0.750 0 0 1
C2262 RECT_CLOSED 0.650 0.650 0 0 1
C2263 RECT_CLOSED 0.550 0.550 0 0 1
C2264 RECT_CLOSED 0.350 0.350 0 0 1
C2265 RECT_CLOSED 0.850 0.850 0 0 1
C2266 RECT_CLOSED 0.700 0.700 0 0 1
C2267 RECT_CLOSED 0.650 0.650 0 0 1
C2268 RECT_CLOSED 0.300 0.300 0 0 1
C2269 RECT_CLOSED 0.750 0.750 0 0 1
C2270 RECT_CLOSED 0.450 0.450 0 0 1
C2271 RECT_CLOSED 0.350 0.350 0 0 1
C2272 RECT_OPEN 0.450 0.450 0 0 1
C2273 RECT_OPEN 0.550 0.550 0 0 1
C2274 RECT_CLOSED 0.850 0.850 0 0 1
C2275 RECT_CLOSED 0.450 0.450 0 0 1
C2276 RECT_CLOSED 0.800 0.800 0 0 1
C2277 RECT_CLOSED 0.530 0.530 0 0 1
C2278 RECT_CLOSED 0.750 0.750 0 0 1
C2279 RECT_CLOSED 0.580 0.580 0 0 1
C2280 RECT_CLOSED 0.540 0.540 0 0 1
C2281 RECT_CLOSED 0.650 0.650 0 0 1
C2282 RECT_CLOSED 0.450 0.450 0 0 1
C2283 RECT_CLOSED 0.580 0.580 0 0 1
C2284 RECT_CLOSED 0.550 0.550 0 0 1
C2285 RECT_CLOSED 0.520 0.520 0 0 1
C2286 RECT_CLOSED 0.700 0.700 0 0 1
C2287 RECT_CLOSED 0.700 0.700 0 0 1
C2288 RECT_CLOSED 0.550 0.550 0 0 1
C2289 RECT_CLOSED 0.850 0.850 0 0 1
C2290 RECT_CLOSED 1.050 1.050 0 0 1
C2291 RECT_CLOSED 1.150 1.150 0 0 1
C2292 RECT_CLOSED 1.050 1.050 0 0 1
C2293 RECT_CLOSED 1.150 1.150 0 0 1
C2294 RECT_CLOSED 0.600 0.600 0 0 1
C2295 RECT_CLOSED 0.550 0.550 0 0 1
C2296 RECT_CLOSED 0.400 0.400 0 0 1
C2297 RECT_CLOSED 0.700 0.700 0 0 1
C2298 RECT_CLOSED 0.950 0.950 0 0 1
C2299 RECT_CLOSED 0.800 0.800 0 0 1
C2300 RECT_CLOSED 0.450 0.450 0 0 1
C2301 RECT_OPEN 0.600 0.600 0 0 1
C2302 RECT_CLOSED 0.850 0.850 0 0 1
C2303 RECT_OPEN 0.480 0.480 0 0 1
C2304 RECT_OPEN 0.360 0.360 0 0 1
C2305 RECT_OPEN 0.620 0.620 0 0 1
C2306 RECT_OPEN 0.310 0.310 0 0 1
C2307 RECT_OPEN 0.370 0.370 0 0 1
C2308 RECT_OPEN 0.460 0.460 0 0 1
C2309 RECT_OPEN 0.400 0.400 0 0 1
C2310 RECT_OPEN 0.370 0.370 0 0 1
C2311 RECT_OPEN 0.680 0.680 0 0 1
C2312 RECT_CLOSED 0.980 0.980 0 0 1
C2313 RECT_CLOSED 0.490 0.490 0 0 1
C2314 RECT_OPEN 0.900 0.900 0 0 1
C2315 RECT_CLOSED 0.730 0.730 0 0 1
C2316 RECT_CLOSED 0.380 0.380 0 0 1
C2317 RECT_CLOSED 1.150 1.150 0 0 1
C2318 RECT_OPEN 0.410 0.410 0 0 1
C2319 RECT_OPEN 0.300 0.300 0 0 1
C2320 RECT_CLOSED 0.420 0.420 0 0 1
C2321 RECT_OPEN 0.700 0.700 0 0 1
C2322 RECT_OPEN 0.500 0.500 0 0 1
C2323 RECT_CLOSED 0.430 0.430 0 0 1
C2324 RECT_OPEN 0.500 0.500 0 0 1
C2325 RECT_OPEN 0.300 0.300 0 0 1
C2326 RECT_OPEN 0.290 0.290 0 0 1
C2327 RECT_OPEN 0.850 0.850 0 0 1
C2328 RECT_OPEN 0.580 0.580 0 0 1
C2329 RECT_OPEN 0.850 0.850 0 0 1
C2330 RECT_OPEN 1.040 1.040 0 0 1
C2331 RECT_CLOSED 0.420 0.420 0 0 1
C2332 RECT_CLOSED 0.500 0.500 0 0 1
C2333 RECT_CLOSED 0.660 0.660 0 0 1
C2334 RECT_CLOSED 0.530 0.530 0 0 1
C2335 RECT_CLOSED 0.610 0.610 0 0 1
C2336 RECT_CLOSED 0.970 0.970 0 0 1
C2337 RECT_CLOSED 1.130 1.130 0 0 1
C2338 RECT_OPEN 0.780 0.780 0 0 1
C2339 RECT_CLOSED 0.580 0.580 0 0 1
C2340 RECT_CLOSED 0.490 0.490 0 0 1
C2341 RECT_CLOSED 0.630 0.630 0 0 1
C2342 RECT_CLOSED 0.710 0.710 0 0 1
C2343 RECT_CLOSED 0.660 0.660 0 0 1
C2344 RECT_CLOSED 0.730 0.730 0 0 1
C2345 RECT_CLOSED 0.720 0.720 0 0 1
C2346 RECT_CLOSED 0.670 0.670 0 0 1
C2347 RECT_CLOSED 0.710 0.710 0 0 1
C2348 RECT_CLOSED 0.680 0.680 0 0 1
C2349 RECT_CLOSED 0.740 0.740 0 0 1
C2350 RECT_CLOSED 0.910 0.910 0 0 1
C2351 RECT_CLOSED 0.820 0.820 0 0 1
C2352 RECT_CLOSED 0.880 0.880 0 0 1
C2353 RECT_CLOSED 0.720 0.720 0 0 1
C2354 RECT_OPEN 0.400 0.400 0 0 1
C2355 RECT_CLOSED 0.680 0.680 0 0 1
C2356 RECT_CLOSED 0.780 0.780 0 0 1
C2357 RECT_CLOSED 0.900 0.900 0 0 1
C2358 RECT_CLOSED 0.980 0.980 0 0 1
C2359 RECT_CLOSED 0.700 0.700 0 0 1
C2360 RECT_CLOSED 1.970 1.970 0 0 1
C2361 RECT_CLOSED 1.300 1.300 0 0 1
C2362 RECT_CLOSED 1.390 1.390 0 0 1
C2363 RECT_OPEN 0.340 0.340 0 0 1
C2364 RECT_OPEN 0.700 0.700 0 0 1
C2365 RECT_OPEN 0.420 0.420 0 0 1
C2366 RECT_CLOSED 0.650 0.650 0 0 1
C2367 RECT_CLOSED 0.620 0.620 0 0 1
C2368 RECT_OPEN 0.250 0.250 0 0 1
C2369 RECT_OPEN 0.940 0.940 0 0 1
C2370 RECT_OPEN 0.960 0.960 0 0 1
C2371 RECT_CLOSED 0.840 0.840 0 0 1
C2372 RECT_CLOSED 0.780 0.780 0 0 1
C2373 RECT_OPEN 0.500 0.500 0 0 1
C2374 RECT_CLOSED 0.840 0.840 0 0 1
C2375 RECT_OPEN 0.830 0.830 0 0 1
C2376 RECT_OPEN 0.880 0.880 0 0 1
C2377 RECT_OPEN 0.520 0.520 0 0 1
C2378 RECT_OPEN 0.450 0.450 0 0 1
C2379 RECT_CLOSED 0.730 0.730 0 0 1
C2380 RECT_OPEN 2.310 2.310 0 0 1
C2381 RECT_OPEN 2.150 2.150 0 0 1
C2382 RECT_CLOSED 0.690 0.690 0 0 1
C2383 RECT_OPEN 0.370 0.370 0 0 1
C2384 RECT_CLOSED 1.740 1.740 0 0 1
C2385 RECT_CLOSED 1.100 1.100 0 0 1
C2386 RECT_CLOSED 1.250 1.250 0 0 1
C2387 RECT_CLOSED 0.970 0.970 0 0 1
C2388 RECT_OPEN 0.940 0.940 0 0 1
C2389 RECT_OPEN 0.660 0.660 0 0 1
C2390 RECT_CLOSED 0.810 0.810 0 0 1
C2391 RECT_CLOSED 1.010 1.010 0 0 1
C2392 RECT_CLOSED 0.720 0.720 0 0 1
C2393 RECT_OPEN 0.530 0.530 0 0 1
C2394 RECT_CLOSED 0.600 0.600 0 0 1
C2395 RECT_OPEN 0.450 0.450 0 0 1
C2396 RECT_OPEN 0.400 0.400 0 0 1
C2397 RECT_CLOSED 0.580 0.580 0 0 1
C2398 RECT_CLOSED 0.900 0.900 0 0 1
C2399 RECT_OPEN 0.610 0.610 0 0 1
C2400 RECT_CLOSED 0.960 0.960 0 0 1
C2401 RECT_CLOSED 0.710 0.710 0 0 1
C2402 RECT_OPEN 0.750 0.750 0 0 1
C2403 RECT_OPEN 0.360 0.360 0 0 1
C2404 RECT_CLOSED 0.550 0.550 0 0 1
C2405 RECT_CLOSED 0.430 0.430 0 0 1
C2406 RECT_OPEN 0.620 0.620 0 0 1
C2407 RECT_CLOSED 0.960 0.960 0 0 1
C2408 RECT_CLOSED 0.550 0.550 0 0 1
C2409 RECT_OPEN 0.490 0.490 0 0 1
C2410 RECT_OPEN 0.500 0.500 0 0 1
C2411 RECT_OPEN 0.510 0.510 0 0 1
C2412 RECT_CLOSED 0.910 0.910 0 0 1
C2413 RECT_CLOSED 0.890 0.890 0 0 1
C2414 RECT_OPEN 0.720 0.720 0 0 1
C2415 RECT_CLOSED 1.060 1.060 0 0 1
C2416 RECT_CLOSED 0.470 0.470 0 0 1
C2417 RECT_CLOSED 0.760 0.760 0 0 1
C2418 RECT_OPEN 0.350 0.350 0 0 1
C2419 RECT_OPEN 0.270 0.270 0 0 1
C2420 RECT_CLOSED 0.680 0.680 0 0 1
C2421 RECT_OPEN 0.870 0.870 0 0 1
C2422 RECT_CLOSED 0.520 0.520 0 0 1
C2423 RECT_OPEN 0.770 0.770 0 0 1
C2424 RECT_CLOSED 0.690 0.690 0 0 1
C2425 RECT_CLOSED 0.370 0.370 0 0 1
C2426 RECT_CLOSED 0.670 0.670 0 0 1
C2427 RECT_CLOSED 0.670 0.670 0 0 1
C2428 RECT_OPEN 0.660 0.660 0 0 1
C2429 RECT_OPEN 0.520 0.520 0 0 1
C2430 RECT_CLOSED 0.560 0.560 0 0 1
C2431 RECT_OPEN 0.410 0.410 0 0 1
C2432 RECT_OPEN 0.360 0.360 0 0 1
C2433 RECT_OPEN 0.430 0.430 0 0 1
C2434 RECT_CLOSED 0.540 0.540 0 0 1
C2435 RECT_OPEN 0.210 0.210 0 0 1
C2436 RECT_OPEN 0.460 0.460 0 0 1
C2437 RECT_CLOSED 0.870 0.870 0 0 1
C2438 RECT_CLOSED 1.010 1.010 0 0 1
C2439 RECT_CLOSED 0.770 0.770 0 0 1
C2440 RECT_CLOSED 0.950 0.950 0 0 1
C2441 RECT_CLOSED 1.080 1.080 0 0 1
C2442 RECT_CLOSED 0.820 0.820 0 0 1
C2443 RECT_CLOSED 0.780 0.780 0 0 1
C2444 RECT_OPEN 0.750 0.750 0 0 1
C2445 RECT_OPEN 1.050 1.050 0 0 1
C2446 RECT_CLOSED 0.950 0.950 0 0 1
C2447 RECT_CLOSED 0.950 0.950 0 0 1
C2448 RECT_CLOSED 0.950 0.950 0 0 1
C2449 RECT_CLOSED 0.700 0.700 0 0 1
C2450 RECT_CLOSED 0.750 0.750 0 0 1
C2451 RECT_CLOSED 0.900 0.900 0 0 1
C2452 RECT_CLOSED 0.950 0.950 0 0 1
C2453 RECT_CLOSED 1.050 1.050 0 0 1
C2454 RECT_CLOSED 0.900 0.900 0 0 1
C2455 RECT_CLOSED 1.010 1.010 0 0 1
C2456 RECT_CLOSED 1.050 1.050 0 0 1
C2457 RECT_OPEN 0.750 0.750 0 0 1
C2458 RECT_CLOSED 0.750 0.750 0 0 1
C2459 RECT_CLOSED 0.950 0.950 0 0 1
C2460 RECT_OPEN 0.750 0.750 0 0 1
C2461 RECT_CLOSED 0.750 0.750 0 0 1
C2462 RECT_CLOSED 0.750 0.750 0 0 1
C2463 RECT_CLOSED 0.750 0.750 0 0 1
C2464 RECT_CLOSED 0.900 0.900 0 0 1
C2465 RECT_CLOSED 0.950 0.950 0 0 1
C2466 RECT_CLOSED 1.010 1.010 0 0 1
C2467 RECT_CLOSED 4.180 4.180 0 0 1
C2468 RECT_CLOSED 4.230 4.230 0 0 1
C2469 RECT_CLOSED 0.900 0.900 0 0 1
C2470 RECT_CLOSED 0.900 0.900 0 0 1
C2471 RECT_CLOSED 0.900 0.900 0 0 1
C2472 RECT_CLOSED 0.900 0.900 0 0 1
C2473 RECT_CLOSED 0.750 0.750 0 0 1
C2474 RECT_CLOSED 0.800 0.800 0 0 1
C2475 RECT_CLOSED 0.950 0.950 0 0 1
C2476 RECT_OPEN 0.750 0.750 0 0 1
C2477 RECT_CLOSED 0.900 0.900 0 0 1
C2478 RECT_OPEN 0.650 0.650 0 0 1
C2479 RECT_CLOSED 0.850 0.850 0 0 1
C2480 RECT_CLOSED 0.750 0.750 0 0 1
C2481 RECT_OPEN 0.750 0.750 0 0 1
C2482 RECT_CLOSED 0.650 0.650 0 0 1
C2483 RECT_CLOSED 0.900 0.900 0 0 1
C2484 RECT_CLOSED 0.850 0.850 0 0 1
C2485 RECT_CLOSED 0.950 0.950 0 0 1
C2486 RECT_CLOSED 0.650 0.650 0 0 1
C2487 RECT_CLOSED 0.850 0.850 0 0 1
C2488 RECT_CLOSED 0.800 0.800 0 0 1
C2489 RECT_CLOSED 0.900 0.900 0 0 1
C2490 RECT_CLOSED 1.150 1.150 0 0 1
C2491 RECT_CLOSED 0.900 0.900 0 0 1
C2492 RECT_CLOSED 0.750 0.750 0 0 1
C2493 RECT_CLOSED 0.750 0.750 0 0 1
C2494 RECT_CLOSED 0.800 0.800 0 0 1
C2495 RECT_CLOSED 0.700 0.700 0 0 1
C2496 RECT_CLOSED 0.750 0.750 0 0 1
C2497 RECT_CLOSED 0.750 0.750 0 0 1
C2498 RECT_CLOSED 0.950 0.950 0 0 1
C2499 RECT_CLOSED 0.950 0.950 0 0 1
C2500 RECT_CLOSED 0.850 0.850 0 0 1
C2501 RECT_CLOSED 0.850 0.850 0 0 1
C2502 RECT_CLOSED 0.700 0.700 0 0 1
C2503 RECT_OPEN 0.700 0.700 0 0 1
C2504 RECT_CLOSED 1.010 1.010 0 0 1
C2505 RECT_CLOSED 0.700 0.700 0 0 1
C2506 RECT_CLOSED 0.650 0.650 0 0 1
C2507 RECT_CLOSED 0.750 0.750 0 0 1
C2508 RECT_CLOSED 0.700 0.700 0 0 1
C2509 RECT_CLOSED 0.650 0.650 0 0 1
C2510 RECT_CLOSED 0.650 0.650 0 0 1
C2511 RECT_CLOSED 0.750 0.750 0 0 1
C2512 RECT_CLOSED 0.700 0.700 0 0 1
C2513 RECT_CLOSED 0.700 0.700 0 0 1
C2514 RECT_CLOSED 0.700 0.700 0 0 1
C2515 RECT_OPEN 0.350 0.350 0 0 1
C2516 RECT_CLOSED 0.750 0.750 0 0 1
C2517 RECT_CLOSED 0.700 0.700 0 0 1
C2518 RECT_CLOSED 0.750 0.750 0 0 1
C2519 RECT_OPEN 0.700 0.700 0 0 1
C2520 RECT_OPEN 0.350 0.350 0 0 1
C2521 RECT_CLOSED 0.700 0.700 0 0 1
C2522 RECT_CLOSED 0.750 0.750 0 0 1
C2523 RECT_CLOSED 0.750 0.750 0 0 1
C2524 RECT_CLOSED 0.850 0.850 0 0 1
C2525 RECT_OPEN 0.600 0.600 0 0 1
C2526 RECT_CLOSED 0.650 0.650 0 0 1
C2527 RECT_CLOSED 0.700 0.700 0 0 1
C2528 RECT_CLOSED 0.600 0.600 0 0 1
C2529 RECT_CLOSED 0.600 0.600 0 0 1
C2530 RECT_OPEN 0.450 0.450 0 0 1
C2531 RECT_CLOSED 0.650 0.650 0 0 1
C2532 RECT_OPEN 0.650 0.650 0 0 1
C2533 RECT_OPEN 0.350 0.350 0 0 1
C2534 RECT_CLOSED 0.900 0.900 0 0 1
C2535 RECT_CLOSED 0.700 0.700 0 0 1
C2536 RECT_CLOSED 0.600 0.600 0 0 1
C2537 RECT_CLOSED 0.500 0.500 0 0 1
C2538 RECT_CLOSED 0.700 0.700 0 0 1
C2539 RECT_CLOSED 0.600 0.600 0 0 1
C2540 RECT_CLOSED 0.550 0.550 0 0 1
C2541 RECT_OPEN 0.450 0.450 0 0 1
C2542 RECT_CLOSED 0.700 0.700 0 0 1
C2543 RECT_CLOSED 0.750 0.750 0 0 1
C2544 RECT_CLOSED 0.750 0.750 0 0 1
C2545 RECT_CLOSED 0.700 0.700 0 0 1
C2546 RECT_CLOSED 0.700 0.700 0 0 1
C2547 RECT_CLOSED 0.900 0.900 0 0 1
C2548 RECT_CLOSED 0.750 0.750 0 0 1
C2549 RECT_CLOSED 0.750 0.750 0 0 1
C2550 RECT_CLOSED 0.750 0.750 0 0 1
C2551 RECT_CLOSED 0.750 0.750 0 0 1
C2552 RECT_CLOSED 0.750 0.750 0 0 1
C2553 RECT_CLOSED 0.800 0.800 0 0 1
C2554 RECT_CLOSED 0.750 0.750 0 0 1
C2555 RECT_CLOSED 0.900 0.900 0 0 1
C2556 RECT_CLOSED 0.900 0.900 0 0 1
C2557 RECT_CLOSED 0.700 0.700 0 0 1
C2558 RECT_CLOSED 0.700 0.700 0 0 1
C2559 RECT_CLOSED 0.700 0.700 0 0 1
C2560 RECT_CLOSED 0.750 0.750 0 0 1
C2561 RECT_CLOSED 0.650 0.650 0 0 1
C2562 RECT_CLOSED 0.950 0.950 0 0 1
C2563 RECT_CLOSED 0.750 0.750 0 0 1
C2564 RECT_CLOSED 0.750 0.750 0 0 1
C2565 RECT_CLOSED 0.800 0.800 0 0 1
C2566 RECT_CLOSED 0.750 0.750 0 0 1
C2567 RECT_CLOSED 0.750 0.750 0 0 1
C2568 RECT_CLOSED 0.700 0.700 0 0 1
C2569 RECT_CLOSED 0.750 0.750 0 0 1
C2570 RECT_CLOSED 0.800 0.800 0 0 1
C2571 RECT_CLOSED 1.850 1.850 0 0 1
C2572 RECT_CLOSED 1.510 1.510 0 0 1
C2573 RECT_CLOSED 0.650 0.650 0 0 1
C2574 RECT_CLOSED 0.850 0.850 0 0 1
C2575 RECT_CLOSED 0.700 0.700 0 0 1
C2576 RECT_CLOSED 1.050 1.050 0 0 1
C2577 RECT_CLOSED 1.050 1.050 0 0 1
C2578 RECT_CLOSED 1.050 1.050 0 0 1
C2579 RECT_CLOSED 1.050 1.050 0 0 1
C2580 RECT_CLOSED 0.650 0.650 0 0 1
C2581 RECT_CLOSED 0.900 0.900 0 0 1
C2582 RECT_CLOSED 0.650 0.650 0 0 1
C2583 RECT_CLOSED 0.870 0.870 0 0 1
C2584 RECT_OPEN 0.430 0.430 0 0 1
C2585 RECT_CLOSED 1.010 1.010 0 0 1
C2586 RECT_CLOSED 0.860 0.860 0 0 1
C2587 RECT_CLOSED 0.790 0.790 0 0 1
C2588 RECT_CLOSED 0.960 0.960 0 0 1
C2589 RECT_CLOSED 0.710 0.710 0 0 1
C2590 RECT_CLOSED 0.900 0.900 0 0 1
C2591 RECT_CLOSED 0.670 0.670 0 0 1
C2592 RECT_CLOSED 0.700 0.700 0 0 1
C2593 RECT_CLOSED 1.010 1.010 0 0 1
C2594 RECT_CLOSED 0.880 0.880 0 0 1
C2595 RECT_CLOSED 1.410 1.410 0 0 1
C2596 RECT_CLOSED 0.660 0.660 0 0 1
C2597 RECT_CLOSED 0.630 0.630 0 0 1
C2598 RECT_CLOSED 0.720 0.720 0 0 1
C2599 RECT_CLOSED 0.670 0.670 0 0 1
C2600 RECT_OPEN 0.760 0.760 0 0 1
C2601 RECT_CLOSED 0.500 0.500 0 0 1
C2602 RECT_CLOSED 0.610 0.610 0 0 1
C2603 RECT_CLOSED 0.500 0.500 0 0 1
C2604 RECT_CLOSED 0.910 0.910 0 0 1
C2605 RECT_CLOSED 1.040 1.040 0 0 1
C2606 RECT_CLOSED 0.780 0.780 0 0 1
C2607 RECT_CLOSED 0.600 0.600 0 0 1
C2608 RECT_CLOSED 0.980 0.980 0 0 1
C2609 RECT_CLOSED 0.770 0.770 0 0 1
C2610 RECT_CLOSED 0.610 0.610 0 0 1
C2611 RECT_CLOSED 0.470 0.470 0 0 1
C2612 RECT_CLOSED 0.630 0.630 0 0 1
C2613 RECT_CLOSED 0.650 0.650 0 0 1
C2614 RECT_CLOSED 0.810 0.810 0 0 1
C2615 RECT_CLOSED 0.460 0.460 0 0 1
C2616 RECT_CLOSED 0.680 0.680 0 0 1
C2617 RECT_CLOSED 0.550 0.550 0 0 1
C2618 RECT_CLOSED 0.970 0.970 0 0 1
C2619 RECT_CLOSED 1.360 1.360 0 0 1
C2620 RECT_CLOSED 1.370 1.370 0 0 1
C2621 RECT_CLOSED 1.350 1.350 0 0 1
C2622 RECT_CLOSED 0.470 0.470 0 0 1
C2623 RECT_CLOSED 0.780 0.780 0 0 1
C2624 RECT_CLOSED 0.920 0.920 0 0 1
C2625 RECT_CLOSED 0.770 0.770 0 0 1
C2626 RECT_OPEN 0.440 0.440 0 0 1
C2627 RECT_CLOSED 1.100 1.100 0 0 1
C2628 RECT_CLOSED 0.810 0.810 0 0 1
C2629 RECT_CLOSED 0.620 0.620 0 0 1
C2630 RECT_CLOSED 0.740 0.740 0 0 1
C2631 RECT_CLOSED 0.550 0.550 0 0 1
C2632 RECT_CLOSED 0.710 0.710 0 0 1
C2633 RECT_CLOSED 1.000 1.000 0 0 1
C2634 RECT_CLOSED 0.730 0.730 0 0 1
C2635 RECT_CLOSED 1.200 1.200 0 0 1
C2636 RECT_CLOSED 0.540 0.540 0 0 1
C2637 RECT_CLOSED 0.730 0.730 0 0 1
C2638 RECT_CLOSED 0.520 0.520 0 0 1
C2639 RECT_CLOSED 0.630 0.630 0 0 1
C2640 RECT_CLOSED 0.370 0.370 0 0 1
C2641 RECT_CLOSED 0.380 0.380 0 0 1
C2642 RECT_CLOSED 0.300 0.300 0 0 1
C2643 RECT_CLOSED 0.610 0.610 0 0 1
C2644 RECT_CLOSED 0.830 0.830 0 0 1
C2645 RECT_CLOSED 0.490 0.490 0 0 1
C2646 RECT_CLOSED 0.590 0.590 0 0 1
C2647 RECT_CLOSED 0.590 0.590 0 0 1
C2648 RECT_CLOSED 0.920 0.920 0 0 1
C2649 RECT_CLOSED 1.180 1.180 0 0 1
C2650 RECT_CLOSED 1.130 1.130 0 0 1
C2651 RECT_CLOSED 1.360 1.360 0 0 1
C2652 RECT_CLOSED 0.730 0.730 0 0 1
C2653 RECT_CLOSED 1.210 1.210 0 0 1
C2654 RECT_CLOSED 1.420 1.420 0 0 1
C2655 RECT_CLOSED 0.990 0.990 0 0 1
C2656 RECT_CLOSED 0.660 0.660 0 0 1
C2657 RECT_OPEN 0.640 0.640 0 0 1
C2658 RECT_OPEN 1.140 1.140 0 0 1
C2659 RECT_OPEN 0.440 0.440 0 0 1
C2660 RECT_CLOSED 0.520 0.520 0 0 1
C2661 RECT_OPEN 0.460 0.460 0 0 1
C2662 RECT_CLOSED 0.970 0.970 0 0 1
C2663 RECT_CLOSED 2.140 2.140 0 0 1
C2664 RECT_CLOSED 0.660 0.660 0 0 1
C2665 RECT_CLOSED 0.600 0.600 0 0 1
C2666 RECT_OPEN 0.790 0.790 0 0 1
C2667 RECT_OPEN 0.840 0.840 0 0 1
C2668 RECT_OPEN 0.740 0.740 0 0 1
C2669 RECT_CLOSED 0.690 0.690 0 0 1
C2670 RECT_CLOSED 0.660 0.660 0 0 1
C2671 RECT_CLOSED 1.130 1.130 0 0 1
C2672 RECT_CLOSED 0.570 0.570 0 0 1
C2673 RECT_CLOSED 0.990 0.990 0 0 1
C2674 RECT_CLOSED 0.640 0.640 0 0 1
C2675 RECT_CLOSED 1.080 1.080 0 0 1
C2676 RECT_OPEN 0.600 0.600 0 0 1
C2677 RECT_CLOSED 0.620 0.620 0 0 1
C2678 RECT_OPEN 0.440 0.440 0 0 1
C2679 RECT_CLOSED 0.720 0.720 0 0 1
C2680 RECT_CLOSED 0.560 0.560 0 0 1
C2681 RECT_CLOSED 0.570 0.570 0 0 1
C2682 RECT_OPEN 0.530 0.530 0 0 1
C2683 RECT_CLOSED 1.270 1.270 0 0 1
C2684 RECT_CLOSED 1.220 1.220 0 0 1
C2685 RECT_CLOSED 1.420 1.420 0 0 1
C2686 RECT_CLOSED 1.280 1.280 0 0 1
C2687 RECT_CLOSED 2.010 2.010 0 0 1
C2688 RECT_CLOSED 0.980 0.980 0 0 1
C2689 RECT_OPEN 1.500 1.500 0 0 1
C2690 RECT_CLOSED 1.520 1.520 0 0 1
C2691 RECT_CLOSED 1.280 1.280 0 0 1
C2692 RECT_CLOSED 1.950 1.950 0 0 1
C2693 RECT_CLOSED 0.870 0.870 0 0 1
C2694 RECT_CLOSED 1.220 1.220 0 0 1
C2695 RECT_CLOSED 1.120 1.120 0 0 1
C2696 RECT_CLOSED 1.050 1.050 0 0 1
C2697 RECT_CLOSED 1.260 1.260 0 0 1
C2698 RECT_CLOSED 1.050 1.050 0 0 1
C2699 RECT_CLOSED 0.600 0.600 0 0 1
C2700 RECT_OPEN 0.640 0.640 0 0 1
C2701 RECT_OPEN 0.490 0.490 0 0 1
C2702 RECT_CLOSED 0.950 0.950 0 0 1
C2703 RECT_CLOSED 0.950 0.950 0 0 1
C2704 RECT_OPEN 0.450 0.450 0 0 1
C2705 RECT_CLOSED 0.700 0.700 0 0 1
C2706 RECT_CLOSED 0.400 0.400 0 0 1
C2707 RECT_OPEN 0.500 0.500 0 0 1
C2708 RECT_OPEN 0.350 0.350 0 0 1
C2709 RECT_OPEN 0.650 0.650 0 0 1
C2710 RECT_CLOSED 1.110 1.110 0 0 1
C2711 RECT_CLOSED 1.010 1.010 0 0 1
C2712 RECT_CLOSED 1.030 1.030 0 0 1
C2713 RECT_CLOSED 1.200 1.200 0 0 1
C2714 RECT_CLOSED 0.750 0.750 0 0 1
C2715 RECT_CLOSED 0.900 0.900 0 0 1
C2716 RECT_CLOSED 0.600 0.600 0 0 1
C2717 RECT_CLOSED 0.900 0.900 0 0 1
C2718 RECT_CLOSED 0.900 0.900 0 0 1
C2719 RECT_CLOSED 1.200 1.200 0 0 1
C2720 RECT_CLOSED 1.040 1.040 0 0 1
C2721 RECT_CLOSED 0.900 0.900 0 0 1
C2722 RECT_CLOSED 0.750 0.750 0 0 1
C2723 RECT_CLOSED 0.750 0.750 0 0 1
C2724 RECT_CLOSED 1.100 1.100 0 0 1
C2725 RECT_CLOSED 0.650 0.650 0 0 1
C2726 RECT_CLOSED 0.900 0.900 0 0 1
C2727 RECT_CLOSED 0.650 0.650 0 0 1
C2728 RECT_CLOSED 0.900 0.900 0 0 1
C2729 RECT_CLOSED 1.200 1.200 0 0 1
C2730 RECT_CLOSED 0.600 0.600 0 0 1
C2731 RECT_CLOSED 1.250 1.250 0 0 1
C2732 RECT_CLOSED 1.300 1.300 0 0 1
C2733 RECT_CLOSED 1.450 1.450 0 0 1
C2734 RECT_CLOSED 0.750 0.750 0 0 1
C2735 RECT_OPEN 0.600 0.600 0 0 1
C2736 RECT_CLOSED 0.800 0.800 0 0 1
C2737 RECT_CLOSED 0.700 0.700 0 0 1
C2738 RECT_CLOSED 0.930 0.930 0 0 1
C2739 RECT_CLOSED 0.450 0.450 0 0 1
C2740 RECT_CLOSED 0.620 0.620 0 0 1
C2741 RECT_CLOSED 0.500 0.500 0 0 1
C2742 RECT_CLOSED 0.710 0.710 0 0 1
C2743 RECT_CLOSED 0.740 0.740 0 0 1
C2744 RECT_CLOSED 0.450 0.450 0 0 1
C2745 RECT_CLOSED 0.450 0.450 0 0 1
C2746 RECT_CLOSED 0.900 0.900 0 0 1
C2747 RECT_CLOSED 0.800 0.800 0 0 1
C2748 RECT_CLOSED 0.850 0.850 0 0 1
C2749 RECT_CLOSED 1.250 1.250 0 0 1
C2750 RECT_CLOSED 1.120 1.120 0 0 1
C2751 RECT_CLOSED 0.900 0.900 0 0 1
C2752 RECT_CLOSED 1.070 1.070 0 0 1
C2753 RECT_CLOSED 0.950 0.950 0 0 1
C2754 RECT_CLOSED 1.240 1.240 0 0 1
C2755 RECT_CLOSED 1.110 1.110 0 0 1
C2756 RECT_OPEN 0.630 0.630 0 0 1
C2757 RECT_OPEN 0.600 0.600 0 0 1
C2758 RECT_OPEN 0.660 0.660 0 0 1
C2759 RECT_CLOSED 0.950 0.950 0 0 1
C2760 RECT_CLOSED 1.570 1.570 0 0 1
C2761 RECT_CLOSED 1.180 1.180 0 0 1
C2762 RECT_CLOSED 1.040 1.040 0 0 1
C2763 RECT_CLOSED 1.450 1.450 0 0 1
C2764 RECT_OPEN 0.550 0.550 0 0 1
C2765 RECT_CLOSED 0.650 0.650 0 0 1
C2766 RECT_CLOSED 0.850 0.850 0 0 1
C2767 RECT_CLOSED 0.800 0.800 0 0 1
C2768 RECT_CLOSED 0.800 0.800 0 0 1
C2769 RECT_CLOSED 0.750 0.750 0 0 1
C2770 RECT_CLOSED 0.830 0.830 0 0 1
C2771 RECT_CLOSED 0.720 0.720 0 0 1
C2772 RECT_CLOSED 0.950 0.950 0 0 1
C2773 RECT_CLOSED 0.950 0.950 0 0 1
C2774 RECT_CLOSED 1.040 1.040 0 0 1
C2775 RECT_CLOSED 0.750 0.750 0 0 1
C2776 RECT_CLOSED 0.650 0.650 0 0 1
C2777 RECT_CLOSED 0.950 0.950 0 0 1
C2778 RECT_CLOSED 0.900 0.900 0 0 1
C2779 RECT_CLOSED 0.900 0.900 0 0 1
C2780 RECT_CLOSED 0.600 0.600 0 0 1
C2781 RECT_CLOSED 1.470 1.470 0 0 1
C2782 RECT_CLOSED 1.560 1.560 0 0 1
C2783 RECT_CLOSED 1.260 1.260 0 0 1
C2784 RECT_CLOSED 1.020 1.020 0 0 1
C2785 RECT_CLOSED 0.680 0.680 0 0 1
C2786 RECT_CLOSED 0.890 0.890 0 0 1
C2787 RECT_CLOSED 0.870 0.870 0 0 1
C2788 RECT_CLOSED 1.120 1.120 0 0 1
C2789 RECT_CLOSED 1.230 1.230 0 0 1
C2790 RECT_CLOSED 0.940 0.940 0 0 1
C2791 RECT_CLOSED 0.920 0.920 0 0 1
C2792 RECT_CLOSED 1.090 1.090 0 0 1
C2793 RECT_CLOSED 1.000 1.000 0 0 1
C2794 RECT_CLOSED 0.980 0.980 0 0 1
C2795 RECT_CLOSED 0.980 0.980 0 0 1
C2796 RECT_CLOSED 0.790 0.790 0 0 1
C2797 RECT_CLOSED 0.850 0.850 0 0 1
C2798 RECT_CLOSED 1.050 1.050 0 0 1
C2799 RECT_CLOSED 1.120 1.120 0 0 1
C2800 RECT_CLOSED 1.620 1.620 0 0 1
C2801 RECT_CLOSED 1.250 1.250 0 0 1
C2802 RECT_CLOSED 0.800 0.800 0 0 1
C2803 RECT_CLOSED 1.170 1.170 0 0 1
C2804 RECT_CLOSED 1.260 1.260 0 0 1
C2805 RECT_CLOSED 0.990 0.990 0 0 1
C2806 RECT_CLOSED 1.210 1.210 0 0 1
C2807 RECT_CLOSED 1.530 1.530 0 0 1
C2808 RECT_CLOSED 0.890 0.890 0 0 1
C2809 RECT_CLOSED 1.030 1.030 0 0 1
C2810 RECT_CLOSED 1.280 1.280 0 0 1
C2811 RECT_CLOSED 1.000 1.000 0 0 1
C2812 RECT_CLOSED 1.300 1.300 0 0 1
C2813 RECT_CLOSED 1.110 1.110 0 0 1
C2814 RECT_CLOSED 1.120 1.120 0 0 1
C2815 RECT_CLOSED 0.760 0.760 0 0 1
C2816 RECT_CLOSED 0.750 0.750 0 0 1
C2817 RECT_CLOSED 0.700 0.700 0 0 1
C2818 RECT_CLOSED 0.720 0.720 0 0 1
C2819 RECT_CLOSED 0.750 0.750 0 0 1
C2820 RECT_CLOSED 0.940 0.940 0 0 1
C2821 RECT_CLOSED 0.790 0.790 0 0 1
C2822 RECT_CLOSED 0.740 0.740 0 0 1
C2823 RECT_CLOSED 0.900 0.900 0 0 1
C2824 RECT_CLOSED 0.670 0.670 0 0 1
C2825 RECT_CLOSED 0.890 0.890 0 0 1
C2826 RECT_CLOSED 0.950 0.950 0 0 1
C2827 RECT_CLOSED 1.000 1.000 0 0 1
C2828 RECT_CLOSED 0.990 0.990 0 0 1
C2829 RECT_CLOSED 1.010 1.010 0 0 1
C2830 RECT_CLOSED 0.700 0.700 0 0 1
C2831 RECT_CLOSED 0.930 0.930 0 0 1
C2832 RECT_CLOSED 0.880 0.880 0 0 1
C2833 RECT_CLOSED 1.100 1.100 0 0 1
C2834 RECT_CLOSED 1.240 1.240 0 0 1
C2835 RECT_CLOSED 1.330 1.330 0 0 1
C2836 RECT_CLOSED 1.330 1.330 0 0 1
C2837 RECT_CLOSED 0.850 0.850 0 0 1
C2838 RECT_CLOSED 0.900 0.900 0 0 1
C2839 RECT_CLOSED 1.040 1.040 0 0 1
C2840 RECT_CLOSED 0.920 0.920 0 0 1
C2841 RECT_CLOSED 1.480 1.480 0 0 1
C2842 RECT_CLOSED 0.760 0.760 0 0 1
C2843 RECT_CLOSED 1.440 1.440 0 0 1
C2844 RECT_CLOSED 1.230 1.230 0 0 1
C2845 RECT_CLOSED 1.090 1.090 0 0 1
C2846 RECT_CLOSED 1.220 1.220 0 0 1
C2847 RECT_CLOSED 0.670 0.670 0 0 1
C2848 RECT_CLOSED 0.910 0.910 0 0 1
C2849 RECT_CLOSED 0.680 0.680 0 0 1
C2850 RECT_CLOSED 0.820 0.820 0 0 1
C2851 RECT_CLOSED 0.940 0.940 0 0 1
C2852 RECT_CLOSED 0.940 0.940 0 0 1
C2853 RECT_CLOSED 0.800 0.800 0 0 1
C2854 RECT_CLOSED 1.120 1.120 0 0 1
C2855 RECT_CLOSED 0.930 0.930 0 0 1
C2856 RECT_CLOSED 0.730 0.730 0 0 1
C2857 RECT_CLOSED 1.060 1.060 0 0 1
C2858 RECT_CLOSED 0.820 0.820 0 0 1
C2859 RECT_CLOSED 0.950 0.950 0 0 1
C2860 RECT_CLOSED 0.850 0.850 0 0 1
C2861 RECT_CLOSED 0.930 0.930 0 0 1
C2862 RECT_CLOSED 0.660 0.660 0 0 1
C2863 RECT_CLOSED 0.640 0.640 0 0 1
C2864 RECT_CLOSED 0.810 0.810 0 0 1
C2865 RECT_CLOSED 0.940 0.940 0 0 1
C2866 RECT_CLOSED 1.280 1.280 0 0 1
C2867 RECT_CLOSED 1.230 1.230 0 0 1
C2868 RECT_CLOSED 0.670 0.670 0 0 1
C2869 RECT_CLOSED 0.740 0.740 0 0 1
C2870 RECT_CLOSED 0.970 0.970 0 0 1
C2871 RECT_CLOSED 1.000 1.000 0 0 1
C2872 RECT_CLOSED 0.750 0.750 0 0 1
C2873 RECT_CLOSED 1.090 1.090 0 0 1
C2874 RECT_CLOSED 0.740 0.740 0 0 1
C2875 RECT_CLOSED 1.140 1.140 0 0 1
C2876 RECT_CLOSED 1.090 1.090 0 0 1
C2877 RECT_CLOSED 1.200 1.200 0 0 1
C2878 RECT_CLOSED 0.910 0.910 0 0 1
C2879 RECT_CLOSED 0.920 0.920 0 0 1
C2880 RECT_CLOSED 1.040 1.040 0 0 1
C2881 RECT_CLOSED 1.050 1.050 0 0 1
C2882 RECT_CLOSED 1.130 1.130 0 0 1
C2883 RECT_CLOSED 0.990 0.990 0 0 1
C2884 RECT_CLOSED 1.100 1.100 0 0 1
C2885 RECT_CLOSED 1.090 1.090 0 0 1
C2886 RECT_CLOSED 1.490 1.490 0 0 1
C2887 RECT_CLOSED 1.000 1.000 0 0 1
C2888 RECT_CLOSED 0.650 0.650 0 0 1
C2889 RECT_CLOSED 0.990 0.990 0 0 1
C2890 RECT_CLOSED 1.330 1.330 0 0 1
C2891 RECT_CLOSED 0.790 0.790 0 0 1
C2892 RECT_CLOSED 0.980 0.980 0 0 1
C2893 RECT_CLOSED 0.810 0.810 0 0 1
C2894 RECT_CLOSED 1.080 1.080 0 0 1
C2895 RECT_CLOSED 1.100 1.100 0 0 1
C2896 RECT_CLOSED 1.090 1.090 0 0 1
C2897 RECT_CLOSED 0.850 0.850 0 0 1
C2898 RECT_CLOSED 0.840 0.840 0 0 1
C2899 RECT_CLOSED 1.040 1.040 0 0 1
C2900 RECT_CLOSED 0.930 0.930 0 0 1
C2901 RECT_CLOSED 1.040 1.040 0 0 1
C2902 RECT_CLOSED 0.790 0.790 0 0 1
C2903 RECT_CLOSED 1.060 1.060 0 0 1
C2904 RECT_CLOSED 0.610 0.610 0 0 1
C2905 RECT_CLOSED 1.510 1.510 0 0 1
C2906 RECT_CLOSED 0.850 0.850 0 0 1
C2907 RECT_CLOSED 1.000 1.000 0 0 1
C2908 RECT_CLOSED 1.130 1.130 0 0 1
C2909 RECT_CLOSED 1.350 1.350 0 0 1
C2910 RECT_CLOSED 1.100 1.100 0 0 1
C2911 RECT_CLOSED 1.600 1.600 0 0 1
C2912 RECT_CLOSED 0.980 0.980 0 0 1
C2913 RECT_CLOSED 0.930 0.930 0 0 1
C2914 RECT_CLOSED 0.830 0.830 0 0 1
C2915 RECT_CLOSED 1.170 1.170 0 0 1
C2916 RECT_CLOSED 1.130 1.130 0 0 1
C2917 RECT_CLOSED 0.820 0.820 0 0 1
C2918 RECT_CLOSED 0.930 0.930 0 0 1
C2919 RECT_CLOSED 1.300 1.300 0 0 1
C2920 RECT_CLOSED 1.200 1.200 0 0 1
C2921 RECT_CLOSED 1.000 1.000 0 0 1
C2922 RECT_CLOSED 0.700 0.700 0 0 1
C2923 RECT_CLOSED 1.400 1.400 0 0 1
C2924 RECT_CLOSED 1.050 1.050 0 0 1
C2925 RECT_CLOSED 0.970 0.970 0 0 1
C2926 RECT_CLOSED 0.970 0.970 0 0 1
C2927 RECT_CLOSED 1.120 1.120 0 0 1
C2928 RECT_CLOSED 0.920 0.920 0 0 1
C2929 RECT_CLOSED 1.060 1.060 0 0 1
C2930 RECT_CLOSED 0.920 0.920 0 0 1
C2931 RECT_CLOSED 0.900 0.900 0 0 1
C2932 RECT_CLOSED 1.100 1.100 0 0 1
C2933 RECT_CLOSED 1.100 1.100 0 0 1
C2934 RECT_CLOSED 0.950 0.950 0 0 1
C2935 RECT_CLOSED 0.990 0.990 0 0 1
C2936 RECT_CLOSED 0.870 0.870 0 0 1
C2937 RECT_CLOSED 1.060 1.060 0 0 1
C2938 RECT_CLOSED 1.100 1.100 0 0 1
C2939 RECT_CLOSED 0.920 0.920 0 0 1
C2940 RECT_CLOSED 1.150 1.150 0 0 1
C2941 RECT_CLOSED 0.860 0.860 0 0 1
C2942 RECT_CLOSED 0.900 0.900 0 0 1
C2943 RECT_CLOSED 0.880 0.880 0 0 1
C2944 RECT_CLOSED 0.870 0.870 0 0 1
C2945 RECT_CLOSED 0.930 0.930 0 0 1
C2946 RECT_CLOSED 0.950 0.950 0 0 1
C2947 RECT_CLOSED 0.620 0.620 0 0 1
C2948 RECT_CLOSED 0.910 0.910 0 0 1
C2949 RECT_CLOSED 0.920 0.920 0 0 1
C2950 RECT_CLOSED 0.990 0.990 0 0 1
C2951 RECT_CLOSED 0.950 0.950 0 0 1
C2952 RECT_CLOSED 0.930 0.930 0 0 1
C2953 RECT_CLOSED 1.050 1.050 0 0 1
C2954 RECT_CLOSED 0.720 0.720 0 0 1
C2955 RECT_CLOSED 0.950 0.950 0 0 1
C2956 RECT_CLOSED 1.050 1.050 0 0 1
C2957 RECT_CLOSED 1.120 1.120 0 0 1
C2958 RECT_CLOSED 1.220 1.220 0 0 1
C2959 RECT_CLOSED 1.030 1.030 0 0 1
C2960 RECT_CLOSED 1.110 1.110 0 0 1
C2961 RECT_CLOSED 0.990 0.990 0 0 1
C2962 RECT_CLOSED 1.080 1.080 0 0 1
C2963 RECT_CLOSED 1.090 1.090 0 0 1
C2964 RECT_CLOSED 1.090 1.090 0 0 1
C2965 RECT_CLOSED 1.200 1.200 0 0 1
C2966 RECT_CLOSED 0.930 0.930 0 0 1
C2967 RECT_CLOSED 1.110 1.110 0 0 1
C2968 RECT_CLOSED 0.700 0.700 0 0 1
C2969 RECT_CLOSED 1.210 1.210 0 0 1
C2970 RECT_CLOSED 1.010 1.010 0 0 1
C2971 RECT_CLOSED 1.210 1.210 0 0 1
C2972 RECT_CLOSED 0.870 0.870 0 0 1
C2973 RECT_CLOSED 1.190 1.190 0 0 1
C2974 RECT_CLOSED 1.350 1.350 0 0 1
C2975 RECT_CLOSED 1.200 1.200 0 0 1
C2976 RECT_CLOSED 1.280 1.280 0 0 1
C2977 RECT_CLOSED 1.220 1.220 0 0 1
C2978 RECT_CLOSED 1.090 1.090 0 0 1
C2979 RECT_CLOSED 1.070 1.070 0 0 1
C2980 RECT_CLOSED 1.320 1.320 0 0 1
C2981 RECT_CLOSED 1.080 1.080 0 0 1
C2982 RECT_CLOSED 1.330 1.330 0 0 1
C2983 RECT_CLOSED 1.290 1.290 0 0 1
C2984 RECT_CLOSED 1.210 1.210 0 0 1
C2985 RECT_CLOSED 1.240 1.240 0 0 1
C2986 RECT_CLOSED 1.040 1.040 0 0 1
C2987 RECT_CLOSED 0.950 0.950 0 0 1
C2988 RECT_CLOSED 1.300 1.300 0 0 1
C2989 RECT_CLOSED 1.570 1.570 0 0 1
C2990 RECT_CLOSED 1.280 1.280 0 0 1
C2991 RECT_CLOSED 1.150 1.150 0 0 1
C2992 RECT_CLOSED 1.180 1.180 0 0 1
C2993 RECT_CLOSED 1.520 1.520 0 0 1
C2994 RECT_CLOSED 1.180 1.180 0 0 1
C2995 RECT_CLOSED 1.380 1.380 0 0 1
C2996 RECT_CLOSED 1.690 1.690 0 0 1
C2997 RECT_CLOSED 0.670 0.670 0 0 1
C2998 RECT_CLOSED 1.230 1.230 0 0 1
C2999 RECT_CLOSED 1.040 1.040 0 0 1
C3000 RECT_CLOSED 1.090 1.090 0 0 1
C3001 RECT_CLOSED 1.000 1.000 0 0 1
C3002 RECT_CLOSED 1.480 1.480 0 0 1
C3003 RECT_CLOSED 1.660 1.660 0 0 1
C3004 RECT_CLOSED 0.910 0.910 0 0 1
C3005 RECT_CLOSED 0.990 0.990 0 0 1
C3006 RECT_CLOSED 0.720 0.720 0 0 1
C3007 RECT_CLOSED 0.820 0.820 0 0 1
C3008 RECT_CLOSED 0.800 0.800 0 0 1
C3009 RECT_CLOSED 0.950 0.950 0 0 1
C3010 RECT_CLOSED 1.140 1.140 0 0 1
C3011 RECT_CLOSED 0.920 0.920 0 0 1
C3012 RECT_CLOSED 0.790 0.790 0 0 1
C3013 RECT_CLOSED 0.680 0.680 0 0 1
C3014 RECT_CLOSED 0.960 0.960 0 0 1
C3015 RECT_CLOSED 1.130 1.130 0 0 1
C3016 RECT_CLOSED 1.500 1.500 0 0 1
C3017 RECT_CLOSED 1.220 1.220 0 0 1
C3018 RECT_CLOSED 1.280 1.280 0 0 1
C3019 RECT_CLOSED 0.900 0.900 0 0 1
C3020 RECT_CLOSED 0.790 0.790 0 0 1
C3021 RECT_CLOSED 0.770 0.770 0 0 1
C3022 RECT_CLOSED 1.130 1.130 0 0 1
C3023 RECT_CLOSED 1.140 1.140 0 0 1
C3024 RECT_CLOSED 1.010 1.010 0 0 1
C3025 RECT_CLOSED 1.040 1.040 0 0 1
C3026 RECT_CLOSED 1.600 1.600 0 0 1
C3027 RECT_CLOSED 0.980 0.980 0 0 1
C3028 RECT_CLOSED 1.040 1.040 0 0 1
C3029 RECT_CLOSED 1.180 1.180 0 0 1
C3030 RECT_CLOSED 1.260 1.260 0 0 1
C3031 RECT_CLOSED 1.050 1.050 0 0 1
C3032 RECT_CLOSED 1.290 1.290 0 0 1
C3033 RECT_CLOSED 1.220 1.220 0 0 1
C3034 RECT_CLOSED 1.170 1.170 0 0 1
C3035 RECT_CLOSED 1.190 1.190 0 0 1
C3036 RECT_CLOSED 0.770 0.770 0 0 1
C3037 RECT_CLOSED 1.000 1.000 0 0 1
C3038 RECT_CLOSED 0.960 0.960 0 0 1
C3039 RECT_CLOSED 0.980 0.980 0 0 1
C3040 RECT_CLOSED 1.130 1.130 0 0 1
C3041 RECT_CLOSED 0.900 0.900 0 0 1
C3042 RECT_CLOSED 1.670 1.670 0 0 1
C3043 RECT_CLOSED 1.380 1.380 0 0 1
C3044 RECT_CLOSED 1.110 1.110 0 0 1
C3045 RECT_CLOSED 1.480 1.480 0 0 1
C3046 RECT_CLOSED 1.460 1.460 0 0 1
C3047 RECT_CLOSED 1.320 1.320 0 0 1
C3048 RECT_CLOSED 1.250 1.250 0 0 1
C3049 RECT_CLOSED 1.340 1.340 0 0 1
C3050 RECT_CLOSED 1.040 1.040 0 0 1
C3051 RECT_CLOSED 1.120 1.120 0 0 1
C3052 RECT_CLOSED 0.790 0.790 0 0 1
C3053 RECT_CLOSED 0.930 0.930 0 0 1
C3054 RECT_CLOSED 1.030 1.030 0 0 1
C3055 RECT_CLOSED 1.000 1.000 0 0 1
C3056 RECT_CLOSED 0.620 0.620 0 0 1
C3057 RECT_CLOSED 1.060 1.060 0 0 1
C3058 RECT_CLOSED 1.040 1.040 0 0 1
C3059 RECT_CLOSED 1.140 1.140 0 0 1
C3060 RECT_CLOSED 0.940 0.940 0 0 1
C3061 RECT_CLOSED 1.160 1.160 0 0 1
C3062 RECT_CLOSED 1.170 1.170 0 0 1
C3063 RECT_CLOSED 0.870 0.870 0 0 1
C3064 RECT_CLOSED 1.030 1.030 0 0 1
C3065 RECT_CLOSED 0.970 0.970 0 0 1
C3066 RECT_CLOSED 0.860 0.860 0 0 1
C3067 RECT_CLOSED 1.240 1.240 0 0 1
C3068 RECT_CLOSED 0.890 0.890 0 0 1
C3069 RECT_CLOSED 0.650 0.650 0 0 1
C3070 RECT_CLOSED 0.960 0.960 0 0 1
C3071 RECT_CLOSED 1.010 1.010 0 0 1
C3072 RECT_CLOSED 0.610 0.610 0 0 1
C3073 RECT_CLOSED 0.890 0.890 0 0 1
C3074 RECT_CLOSED 1.220 1.220 0 0 1
C3075 RECT_CLOSED 1.030 1.030 0 0 1
C3076 RECT_CLOSED 0.630 0.630 0 0 1
C3077 RECT_CLOSED 1.600 1.600 0 0 1
C3078 RECT_CLOSED 1.010 1.010 0 0 1
C3079 RECT_CLOSED 1.160 1.160 0 0 1
C3080 RECT_CLOSED 1.100 1.100 0 0 1
C3081 RECT_CLOSED 0.850 0.850 0 0 1
C3082 RECT_CLOSED 0.980 0.980 0 0 1
C3083 RECT_CLOSED 0.600 0.600 0 0 1
C3084 RECT_CLOSED 1.430 1.430 0 0 1
C3085 RECT_CLOSED 1.040 1.040 0 0 1
C3086 RECT_CLOSED 1.050 1.050 0 0 1
C3087 RECT_CLOSED 1.390 1.390 0 0 1
C3088 RECT_CLOSED 1.080 1.080 0 0 1
C3089 RECT_CLOSED 0.800 0.800 0 0 1
C3090 RECT_CLOSED 0.690 0.690 0 0 1
C3091 RECT_CLOSED 1.080 1.080 0 0 1
C3092 RECT_CLOSED 0.460 0.460 0 0 1
C3093 RECT_CLOSED 0.770 0.770 0 0 1
C3094 RECT_CLOSED 0.940 0.940 0 0 1
C3095 RECT_CLOSED 0.900 0.900 0 0 1
C3096 RECT_OPEN 0.930 0.930 0 0 1
C3097 RECT_CLOSED 1.080 1.080 0 0 1
C3098 RECT_CLOSED 1.230 1.230 0 0 1
C3099 RECT_CLOSED 1.080 1.080 0 0 1
C3100 RECT_CLOSED 0.910 0.910 0 0 1
C3101 RECT_CLOSED 1.070 1.070 0 0 1
C3102 RECT_CLOSED 0.820 0.820 0 0 1
C3103 RECT_CLOSED 0.920 0.920 0 0 1
C3104 RECT_CLOSED 0.760 0.760 0 0 1
C3105 RECT_CLOSED 0.540 0.540 0 0 1
C3106 RECT_CLOSED 0.710 0.710 0 0 1
C3107 RECT_CLOSED 0.990 0.990 0 0 1
C3108 RECT_CLOSED 0.810 0.810 0 0 1
C3109 RECT_CLOSED 0.960 0.960 0 0 1
C3110 RECT_CLOSED 0.620 0.620 0 0 1
C3111 RECT_CLOSED 0.710 0.710 0 0 1
C3112 RECT_CLOSED 0.990 0.990 0 0 1
C3113 RECT_CLOSED 1.430 1.430 0 0 1
C3114 RECT_CLOSED 0.830 0.830 0 0 1
C3115 RECT_CLOSED 1.070 1.070 0 0 1
C3116 RECT_CLOSED 1.190 1.190 0 0 1
C3117 RECT_CLOSED 0.910 0.910 0 0 1
C3118 RECT_CLOSED 1.020 1.020 0 0 1
C3119 RECT_CLOSED 1.070 1.070 0 0 1
C3120 RECT_CLOSED 0.940 0.940 0 0 1
C3121 RECT_CLOSED 0.740 0.740 0 0 1
C3122 RECT_CLOSED 1.040 1.040 0 0 1
C3123 RECT_CLOSED 0.660 0.660 0 0 1
C3124 RECT_CLOSED 1.510 1.510 0 0 1
C3125 RECT_CLOSED 0.960 0.960 0 0 1
C3126 RECT_OPEN 0.760 0.760 0 0 1
C3127 RECT_OPEN 0.650 0.650 0 0 1
C3128 RECT_CLOSED 0.870 0.870 0 0 1
C3129 RECT_CLOSED 1.280 1.280 0 0 1
C3130 RECT_CLOSED 1.260 1.260 0 0 1
C3131 RECT_CLOSED 2.210 2.210 0 0 1
C3132 RECT_CLOSED 1.810 1.810 0 0 1
C3133 RECT_CLOSED 1.380 1.380 0 0 1
C3134 RECT_CLOSED 0.790 0.790 0 0 1
C3135 RECT_OPEN 0.750 0.750 0 0 1
C3136 RECT_CLOSED 0.490 0.490 0 0 1
C3137 RECT_CLOSED 0.600 0.600 0 0 1
C3138 RECT_OPEN 0.670 0.670 0 0 1
C3139 RECT_CLOSED 0.800 0.800 0 0 1
C3140 RECT_CLOSED 0.840 0.840 0 0 1
C3141 RECT_CLOSED 1.040 1.040 0 0 1
C3142 RECT_CLOSED 1.320 1.320 0 0 1
C3143 RECT_CLOSED 0.440 0.440 0 0 1
C3144 RECT_CLOSED 1.060 1.060 0 0 1
C3145 RECT_CLOSED 1.610 1.610 0 0 1
C3146 RECT_CLOSED 1.140 1.140 0 0 1
C3147 RECT_CLOSED 0.960 0.960 0 0 1
C3148 RECT_OPEN 0.750 0.750 0 0 1
C3149 RECT_CLOSED 0.650 0.650 0 0 1
C3150 RECT_CLOSED 1.340 1.340 0 0 1
C3151 RECT_CLOSED 1.410 1.410 0 0 1
C3152 RECT_CLOSED 1.100 1.100 0 0 1
C3153 RECT_CLOSED 1.170 1.170 0 0 1
C3154 RECT_CLOSED 1.410 1.410 0 0 1
C3155 RECT_CLOSED 1.280 1.280 0 0 1
C3156 RECT_CLOSED 1.080 1.080 0 0 1
C3157 RECT_CLOSED 1.090 1.090 0 0 1
C3158 RECT_CLOSED 0.970 0.970 0 0 1
C3159 RECT_CLOSED 0.680 0.680 0 0 1
C3160 RECT_CLOSED 0.370 0.370 0 0 1
C3161 RECT_CLOSED 0.300 0.300 0 0 1
C3162 RECT_CLOSED 0.700 0.700 0 0 1
C3163 RECT_CLOSED 0.950 0.950 0 0 1
C3164 RECT_CLOSED 0.420 0.420 0 0 1
C3165 RECT_CLOSED 0.340 0.340 0 0 1
C3166 RECT_CLOSED 0.420 0.420 0 0 1
C3167 RECT_CLOSED 0.760 0.760 0 0 1
C3168 RECT_CLOSED 1.060 1.060 0 0 1
C3169 RECT_CLOSED 1.010 1.010 0 0 1
C3170 RECT_CLOSED 0.960 0.960 0 0 1
C3171 RECT_CLOSED 0.940 0.940 0 0 1
C3172 RECT_CLOSED 0.960 0.960 0 0 1
C3173 RECT_CLOSED 0.980 0.980 0 0 1
C3174 RECT_CLOSED 0.840 0.840 0 0 1
C3175 RECT_CLOSED 0.680 0.680 0 0 1
C3176 RECT_CLOSED 1.240 1.240 0 0 1
C3177 RECT_CLOSED 0.530 0.530 0 0 1
C3178 RECT_OPEN 0.700 0.700 0 0 1
C3179 RECT_CLOSED 0.960 0.960 0 0 1
C3180 RECT_CLOSED 0.810 0.810 0 0 1
C3181 RECT_CLOSED 1.110 1.110 0 0 1
C3182 RECT_CLOSED 0.800 0.800 0 0 1
C3183 RECT_CLOSED 0.980 0.980 0 0 1
C3184 RECT_CLOSED 0.490 0.490 0 0 1
C3185 RECT_CLOSED 0.850 0.850 0 0 1
C3186 RECT_CLOSED 0.590 0.590 0 0 1
C3187 RECT_CLOSED 0.700 0.700 0 0 1
C3188 RECT_CLOSED 0.760 0.760 0 0 1
C3189 RECT_CLOSED 1.060 1.060 0 0 1
C3190 RECT_CLOSED 0.860 0.860 0 0 1
C3191 RECT_CLOSED 1.050 1.050 0 0 1
C3192 RECT_CLOSED 2.260 2.260 0 0 1
C3193 RECT_CLOSED 0.810 0.810 0 0 1
C3194 RECT_CLOSED 1.040 1.040 0 0 1
C3195 RECT_CLOSED 0.930 0.930 0 0 1
C3196 RECT_CLOSED 1.180 1.180 0 0 1
C3197 RECT_CLOSED 0.690 0.690 0 0 1
C3198 RECT_CLOSED 0.690 0.690 0 0 1
C3199 RECT_CLOSED 1.160 1.160 0 0 1
C3200 RECT_CLOSED 1.000 1.000 0 0 1
C3201 RECT_CLOSED 1.050 1.050 0 0 1
C3202 RECT_CLOSED 1.020 1.020 0 0 1
C3203 RECT_CLOSED 1.210 1.210 0 0 1
C3204 RECT_CLOSED 0.810 0.810 0 0 1
C3205 RECT_CLOSED 0.820 0.820 0 0 1
C3206 RECT_CLOSED 0.540 0.540 0 0 1
C3207 RECT_CLOSED 0.620 0.620 0 0 1
C3208 RECT_CLOSED 0.820 0.820 0 0 1
C3209 RECT_CLOSED 1.090 1.090 0 0 1
C3210 RECT_CLOSED 1.320 1.320 0 0 1
C3211 RECT_CLOSED 1.030 1.030 0 0 1
C3212 RECT_CLOSED 0.950 0.950 0 0 1
C3213 RECT_CLOSED 0.650 0.650 0 0 1
C3214 RECT_CLOSED 1.140 1.140 0 0 1
C3215 RECT_CLOSED 0.810 0.810 0 0 1
C3216 RECT_CLOSED 1.320 1.320 0 0 1
C3217 RECT_CLOSED 0.880 0.880 0 0 1
C3218 RECT_CLOSED 0.880 0.880 0 0 1
C3219 RECT_CLOSED 0.640 0.640 0 0 1
C3220 RECT_CLOSED 0.660 0.660 0 0 1
C3221 RECT_CLOSED 1.230 1.230 0 0 1
C3222 RECT_CLOSED 1.270 1.270 0 0 1
C3223 RECT_CLOSED 1.090 1.090 0 0 1
C3224 RECT_CLOSED 1.020 1.020 0 0 1
C3225 RECT_CLOSED 0.960 0.960 0 0 1
C3226 RECT_CLOSED 1.080 1.080 0 0 1
C3227 RECT_CLOSED 1.020 1.020 0 0 1
C3228 RECT_CLOSED 1.010 1.010 0 0 1
C3229 RECT_CLOSED 0.330 0.330 0 0 1
C3230 RECT_CLOSED 0.240 0.240 0 0 1
C3231 RECT_CLOSED 2.070 2.070 0 0 1
C3232 RECT_CLOSED 1.120 1.120 0 0 1
C3233 RECT_CLOSED 1.020 1.020 0 0 1
C3234 RECT_CLOSED 0.990 0.990 0 0 1
C3235 RECT_CLOSED 0.450 0.450 0 0 1
C3236 RECT_CLOSED 0.970 0.970 0 0 1
C3237 RECT_CLOSED 0.890 0.890 0 0 1
C3238 RECT_CLOSED 1.170 1.170 0 0 1
C3239 RECT_CLOSED 0.660 0.660 0 0 1
C3240 RECT_CLOSED 0.760 0.760 0 0 1
C3241 RECT_CLOSED 1.190 1.190 0 0 1
C3242 RECT_CLOSED 0.480 0.480 0 0 1
C3243 RECT_CLOSED 1.260 1.260 0 0 1
C3244 RECT_CLOSED 1.740 1.740 0 0 1
C3245 RECT_CLOSED 2.060 2.060 0 0 1
C3246 RECT_CLOSED 1.270 1.270 0 0 1
C3247 RECT_CLOSED 0.700 0.700 0 0 1
C3248 RECT_CLOSED 0.470 0.470 0 0 1
C3249 RECT_CLOSED 0.910 0.910 0 0 1
C3250 RECT_CLOSED 0.540 0.540 0 0 1
C3251 RECT_CLOSED 0.300 0.300 0 0 1
C3252 RECT_OPEN 0.340 0.340 0 0 1
C3253 RECT_CLOSED 0.240 0.240 0 0 1
C3254 RECT_CLOSED 0.430 0.430 0 0 1
C3255 RECT_CLOSED 0.290 0.290 0 0 1
C3256 RECT_CLOSED 0.660 0.660 0 0 1
C3257 RECT_CLOSED 0.670 0.670 0 0 1
C3258 RECT_CLOSED 0.580 0.580 0 0 1
C3259 RECT_CLOSED 0.700 0.700 0 0 1
C3260 RECT_CLOSED 0.670 0.670 0 0 1
C3261 RECT_CLOSED 0.720 0.720 0 0 1
C3262 RECT_CLOSED 0.820 0.820 0 0 1
C3263 RECT_CLOSED 0.720 0.720 0 0 1
C3264 RECT_CLOSED 0.860 0.860 0 0 1
C3265 RECT_CLOSED 1.210 1.210 0 0 1
C3266 RECT_CLOSED 1.310 1.310 0 0 1
C3267 RECT_CLOSED 0.720 0.720 0 0 1
C3268 RECT_CLOSED 1.010 1.010 0 0 1
C3269 RECT_CLOSED 1.070 1.070 0 0 1
C3270 RECT_CLOSED 0.970 0.970 0 0 1
C3271 RECT_CLOSED 0.810 0.810 0 0 1
C3272 RECT_OPEN 0.480 0.480 0 0 1
C3273 RECT_CLOSED 0.370 0.370 0 0 1
C3274 RECT_CLOSED 0.780 0.780 0 0 1
C3275 RECT_CLOSED 1.100 1.100 0 0 1
C3276 RECT_CLOSED 1.300 1.300 0 0 1
C3277 RECT_CLOSED 0.700 0.700 0 0 1
C3278 RECT_CLOSED 2.370 2.370 0 0 1
C3279 RECT_CLOSED 2.030 2.030 0 0 1
C3280 RECT_CLOSED 1.130 1.130 0 0 1
C3281 RECT_CLOSED 0.850 0.850 0 0 1
C3282 RECT_CLOSED 0.750 0.750 0 0 1
C3283 RECT_CLOSED 0.680 0.680 0 0 1
C3284 RECT_CLOSED 0.570 0.570 0 0 1
C3285 RECT_CLOSED 0.690 0.690 0 0 1
C3286 RECT_CLOSED 0.490 0.490 0 0 1
C3287 RECT_CLOSED 1.050 1.050 0 0 1
C3288 RECT_CLOSED 0.550 0.550 0 0 1
C3289 RECT_CLOSED 0.390 0.390 0 0 1
C3290 RECT_CLOSED 0.430 0.430 0 0 1
C3291 RECT_CLOSED 0.690 0.690 0 0 1
C3292 RECT_CLOSED 0.840 0.840 0 0 1
C3293 RECT_OPEN 0.470 0.470 0 0 1
C3294 RECT_OPEN 0.440 0.440 0 0 1
C3295 RECT_OPEN 0.620 0.620 0 0 1
C3296 RECT_CLOSED 0.710 0.710 0 0 1
C3297 RECT_CLOSED 0.210 0.210 0 0 1
C3298 RECT_CLOSED 0.420 0.420 0 0 1
C3299 RECT_OPEN 0.410 0.410 0 0 1
C3300 RECT_OPEN 0.240 0.240 0 0 1
C3301 RECT_OPEN 0.590 0.590 0 0 1
C3302 RECT_OPEN 0.370 0.370 0 0 1
C3303 RECT_OPEN 0.580 0.580 0 0 1
C3304 RECT_OPEN 0.640 0.640 0 0 1
C3305 RECT_OPEN 0.770 0.770 0 0 1
C3306 RECT_CLOSED 0.890 0.890 0 0 1
C3307 RECT_CLOSED 1.190 1.190 0 0 1
C3308 RECT_OPEN 0.750 0.750 0 0 1
C3309 RECT_CLOSED 0.750 0.750 0 0 1
C3310 RECT_CLOSED 0.510 0.510 0 0 1
C3311 RECT_CLOSED 0.330 0.330 0 0 1
C3312 RECT_OPEN 0.560 0.560 0 0 1
C3313 RECT_CLOSED 0.700 0.700 0 0 1
C3314 RECT_CLOSED 1.300 1.300 0 0 1
C3315 RECT_CLOSED 0.700 0.700 0 0 1
C3316 RECT_CLOSED 0.590 0.590 0 0 1
C3317 RECT_CLOSED 0.690 0.690 0 0 1
C3318 RECT_CLOSED 1.240 1.240 0 0 1
C3319 RECT_CLOSED 0.860 0.860 0 0 1
C3320 RECT_CLOSED 1.230 1.230 0 0 1
C3321 RECT_CLOSED 0.810 0.810 0 0 1
C3322 RECT_CLOSED 0.810 0.810 0 0 1
C3323 RECT_CLOSED 0.740 0.740 0 0 1
C3324 RECT_CLOSED 0.820 0.820 0 0 1
C3325 RECT_CLOSED 0.570 0.570 0 0 1
C3326 RECT_CLOSED 0.570 0.570 0 0 1
C3327 RECT_CLOSED 0.360 0.360 0 0 1
C3328 RECT_CLOSED 0.570 0.570 0 0 1
C3329 RECT_CLOSED 0.710 0.710 0 0 1
C3330 RECT_CLOSED 0.780 0.780 0 0 1
C3331 RECT_CLOSED 0.900 0.900 0 0 1
C3332 RECT_CLOSED 0.870 0.870 0 0 1
C3333 RECT_CLOSED 0.780 0.780 0 0 1
C3334 RECT_CLOSED 0.700 0.700 0 0 1
C3335 RECT_CLOSED 0.890 0.890 0 0 1
C3336 RECT_CLOSED 0.720 0.720 0 0 1
C3337 RECT_CLOSED 0.760 0.760 0 0 1
C3338 RECT_CLOSED 0.730 0.730 0 0 1
C3339 RECT_CLOSED 0.650 0.650 0 0 1
C3340 RECT_CLOSED 0.590 0.590 0 0 1
C3341 RECT_CLOSED 0.830 0.830 0 0 1
C3342 RECT_CLOSED 0.680 0.680 0 0 1
C3343 RECT_CLOSED 0.620 0.620 0 0 1
C3344 RECT_CLOSED 0.610 0.610 0 0 1
C3345 RECT_CLOSED 0.510 0.510 0 0 1
C3346 RECT_CLOSED 0.740 0.740 0 0 1
C3347 RECT_CLOSED 0.900 0.900 0 0 1
C3348 RECT_CLOSED 1.310 1.310 0 0 1
C3349 RECT_CLOSED 0.500 0.500 0 0 1
C3350 RECT_CLOSED 1.100 1.100 0 0 1
C3351 RECT_CLOSED 0.500 0.500 0 0 1
C3352 RECT_CLOSED 0.660 0.660 0 0 1
C3353 RECT_CLOSED 0.870 0.870 0 0 1
C3354 RECT_CLOSED 1.040 1.040 0 0 1
C3355 RECT_CLOSED 0.770 0.770 0 0 1
C3356 RECT_CLOSED 0.790 0.790 0 0 1
C3357 RECT_CLOSED 0.890 0.890 0 0 1
C3358 RECT_CLOSED 1.100 1.100 0 0 1
C3359 RECT_CLOSED 0.990 0.990 0 0 1
C3360 RECT_CLOSED 0.770 0.770 0 0 1
C3361 RECT_CLOSED 0.740 0.740 0 0 1
C3362 RECT_CLOSED 0.710 0.710 0 0 1
C3363 RECT_CLOSED 0.700 0.700 0 0 1
C3364 RECT_CLOSED 0.630 0.630 0 0 1
C3365 RECT_CLOSED 0.890 0.890 0 0 1
C3366 RECT_CLOSED 0.810 0.810 0 0 1
C3367 RECT_CLOSED 1.100 1.100 0 0 1
C3368 RECT_CLOSED 0.980 0.980 0 0 1
C3369 RECT_CLOSED 0.750 0.750 0 0 1
C3370 RECT_CLOSED 0.670 0.670 0 0 1
C3371 RECT_CLOSED 0.650 0.650 0 0 1
C3372 RECT_CLOSED 0.490 0.490 0 0 1
C3373 RECT_CLOSED 0.670 0.670 0 0 1
C3374 RECT_CLOSED 0.840 0.840 0 0 1
C3375 RECT_CLOSED 1.000 1.000 0 0 1
C3376 RECT_CLOSED 1.050 1.050 0 0 1
C3377 RECT_CLOSED 0.830 0.830 0 0 1
C3378 RECT_CLOSED 0.630 0.630 0 0 1
C3379 RECT_CLOSED 0.640 0.640 0 0 1
C3380 RECT_CLOSED 0.600 0.600 0 0 1
C3381 RECT_CLOSED 0.840 0.840 0 0 1
C3382 RECT_CLOSED 0.770 0.770 0 0 1
C3383 RECT_CLOSED 0.680 0.680 0 0 1
C3384 RECT_CLOSED 0.730 0.730 0 0 1
C3385 RECT_CLOSED 0.910 0.910 0 0 1
C3386 RECT_CLOSED 0.770 0.770 0 0 1
C3387 RECT_CLOSED 0.740 0.740 0 0 1
C3388 RECT_CLOSED 0.690 0.690 0 0 1
C3389 RECT_CLOSED 0.940 0.940 0 0 1
C3390 RECT_CLOSED 0.760 0.760 0 0 1
C3391 RECT_CLOSED 0.750 0.750 0 0 1
C3392 RECT_CLOSED 0.790 0.790 0 0 1
C3393 RECT_CLOSED 0.820 0.820 0 0 1
C3394 RECT_CLOSED 0.830 0.830 0 0 1
C3395 RECT_CLOSED 0.850 0.850 0 0 1
C3396 RECT_CLOSED 0.690 0.690 0 0 1
C3397 RECT_CLOSED 0.720 0.720 0 0 1
C3398 RECT_CLOSED 0.770 0.770 0 0 1
C3399 RECT_CLOSED 0.760 0.760 0 0 1
C3400 RECT_CLOSED 0.670 0.670 0 0 1
C3401 RECT_CLOSED 0.930 0.930 0 0 1
C3402 RECT_CLOSED 0.800 0.800 0 0 1
C3403 RECT_CLOSED 0.660 0.660 0 0 1
C3404 RECT_CLOSED 0.880 0.880 0 0 1
C3405 RECT_CLOSED 1.000 1.000 0 0 1
C3406 RECT_CLOSED 0.800 0.800 0 0 1
C3407 RECT_CLOSED 0.870 0.870 0 0 1
C3408 RECT_CLOSED 0.740 0.740 0 0 1
C3409 RECT_CLOSED 0.930 0.930 0 0 1
C3410 RECT_CLOSED 1.020 1.020 0 0 1
C3411 RECT_CLOSED 0.990 0.990 0 0 1
C3412 RECT_CLOSED 0.830 0.830 0 0 1
C3413 RECT_CLOSED 0.660 0.660 0 0 1
C3414 RECT_CLOSED 0.840 0.840 0 0 1
C3415 RECT_CLOSED 0.680 0.680 0 0 1
C3416 RECT_CLOSED 0.770 0.770 0 0 1
C3417 RECT_CLOSED 0.880 0.880 0 0 1
C3418 RECT_CLOSED 0.670 0.670 0 0 1
C3419 RECT_CLOSED 0.630 0.630 0 0 1
C3420 RECT_CLOSED 0.680 0.680 0 0 1
C3421 RECT_CLOSED 0.570 0.570 0 0 1
C3422 RECT_CLOSED 0.940 0.940 0 0 1
C3423 RECT_CLOSED 0.850 0.850 0 0 1
C3424 RECT_CLOSED 0.940 0.940 0 0 1
C3425 RECT_CLOSED 0.850 0.850 0 0 1
C3426 RECT_CLOSED 0.870 0.870 0 0 1
C3427 RECT_CLOSED 0.810 0.810 0 0 1
C3428 RECT_CLOSED 0.680 0.680 0 0 1
C3429 RECT_CLOSED 0.710 0.710 0 0 1
C3430 RECT_CLOSED 0.830 0.830 0 0 1
C3431 RECT_CLOSED 0.630 0.630 0 0 1
C3432 RECT_CLOSED 0.640 0.640 0 0 1
C3433 RECT_CLOSED 0.800 0.800 0 0 1
C3434 RECT_CLOSED 0.730 0.730 0 0 1
C3435 RECT_CLOSED 0.690 0.690 0 0 1
C3436 RECT_CLOSED 0.730 0.730 0 0 1
C3437 RECT_CLOSED 0.730 0.730 0 0 1
C3438 RECT_CLOSED 1.400 1.400 0 0 1
C3439 RECT_CLOSED 0.820 0.820 0 0 1
C3440 RECT_CLOSED 0.550 0.550 0 0 1
C3441 RECT_CLOSED 0.710 0.710 0 0 1
C3442 RECT_CLOSED 0.850 0.850 0 0 1
C3443 RECT_CLOSED 0.790 0.790 0 0 1
C3444 RECT_CLOSED 0.760 0.760 0 0 1
C3445 RECT_CLOSED 0.770 0.770 0 0 1
C3446 RECT_CLOSED 0.810 0.810 0 0 1
C3447 RECT_CLOSED 0.780 0.780 0 0 1
C3448 RECT_CLOSED 0.790 0.790 0 0 1
C3449 RECT_CLOSED 0.810 0.810 0 0 1
C3450 RECT_CLOSED 0.850 0.850 0 0 1
C3451 RECT_CLOSED 0.490 0.490 0 0 1
C3452 RECT_CLOSED 0.700 0.700 0 0 1
C3453 RECT_CLOSED 0.540 0.540 0 0 1
C3454 RECT_CLOSED 0.680 0.680 0 0 1
C3455 RECT_CLOSED 0.560 0.560 0 0 1
C3456 RECT_CLOSED 0.660 0.660 0 0 1
C3457 RECT_CLOSED 0.840 0.840 0 0 1
C3458 RECT_CLOSED 0.640 0.640 0 0 1
C3459 RECT_CLOSED 0.650 0.650 0 0 1
C3460 RECT_CLOSED 0.650 0.650 0 0 1
C3461 RECT_CLOSED 0.590 0.590 0 0 1
C3462 RECT_OPEN 0.660 0.660 0 0 1
C3463 RECT_CLOSED 1.010 1.010 0 0 1
C3464 RECT_CLOSED 1.050 1.050 0 0 1
C3465 RECT_CLOSED 0.770 0.770 0 0 1
C3466 RECT_CLOSED 0.600 0.600 0 0 1
C3467 RECT_CLOSED 0.600 0.600 0 0 1
C3468 RECT_CLOSED 0.950 0.950 0 0 1
C3469 RECT_CLOSED 0.970 0.970 0 0 1
C3470 RECT_CLOSED 1.200 1.200 0 0 1
C3471 RECT_CLOSED 1.060 1.060 0 0 1
C3472 RECT_CLOSED 1.370 1.370 0 0 1
C3473 RECT_CLOSED 0.900 0.900 0 0 1
C3474 RECT_CLOSED 0.640 0.640 0 0 1
C3475 RECT_CLOSED 0.780 0.780 0 0 1
C3476 RECT_CLOSED 0.740 0.740 0 0 1
C3477 RECT_CLOSED 0.630 0.630 0 0 1
C3478 RECT_CLOSED 0.650 0.650 0 0 1
C3479 RECT_CLOSED 0.770 0.770 0 0 1
C3480 RECT_CLOSED 0.740 0.740 0 0 1
C3481 RECT_CLOSED 0.670 0.670 0 0 1
C3482 RECT_CLOSED 0.780 0.780 0 0 1
C3483 RECT_CLOSED 0.680 0.680 0 0 1
C3484 RECT_CLOSED 0.990 0.990 0 0 1
C3485 RECT_CLOSED 1.010 1.010 0 0 1
C3486 RECT_CLOSED 0.820 0.820 0 0 1
C3487 RECT_CLOSED 1.240 1.240 0 0 1
C3488 RECT_CLOSED 0.850 0.850 0 0 1
C3489 RECT_CLOSED 1.280 1.280 0 0 1
C3490 RECT_CLOSED 0.780 0.780 0 0 1
C3491 RECT_CLOSED 0.890 0.890 0 0 1
C3492 RECT_CLOSED 1.250 1.250 0 0 1
C3493 RECT_CLOSED 0.780 0.780 0 0 1
C3494 RECT_OPEN 0.830 0.830 0 0 1
C3495 RECT_OPEN 0.960 0.960 0 0 1
C3496 RECT_CLOSED 0.780 0.780 0 0 1
C3497 RECT_CLOSED 0.750 0.750 0 0 1
C3498 RECT_CLOSED 0.730 0.730 0 0 1
C3499 RECT_CLOSED 0.700 0.700 0 0 1
C3500 RECT_OPEN 1.000 1.000 0 0 1
C3501 RECT_OPEN 0.510 0.510 0 0 1
C3502 RECT_CLOSED 0.810 0.810 0 0 1
C3503 RECT_CLOSED 1.060 1.060 0 0 1
C3504 RECT_CLOSED 0.760 0.760 0 0 1
C3505 RECT_CLOSED 0.890 0.890 0 0 1
C3506 RECT_CLOSED 1.120 1.120 0 0 1
C3507 RECT_CLOSED 0.740 0.740 0 0 1
C3508 RECT_CLOSED 0.690 0.690 0 0 1
C3509 RECT_OPEN 0.390 0.390 0 0 1
C3510 RECT_CLOSED 0.640 0.640 0 0 1
C3511 RECT_CLOSED 0.820 0.820 0 0 1
C3512 RECT_CLOSED 0.750 0.750 0 0 1
C3513 RECT_CLOSED 0.720 0.720 0 0 1
C3514 RECT_CLOSED 0.800 0.800 0 0 1
C3515 RECT_CLOSED 0.740 0.740 0 0 1
C3516 RECT_CLOSED 0.660 0.660 0 0 1
C3517 RECT_CLOSED 0.590 0.590 0 0 1
C3518 RECT_CLOSED 0.730 0.730 0 0 1
C3519 RECT_CLOSED 1.190 1.190 0 0 1
C3520 RECT_CLOSED 0.910 0.910 0 0 1
C3521 RECT_CLOSED 0.730 0.730 0 0 1
C3522 RECT_CLOSED 0.930 0.930 0 0 1
C3523 RECT_CLOSED 0.640 0.640 0 0 1
C3524 RECT_CLOSED 0.610 0.610 0 0 1
C3525 RECT_CLOSED 0.770 0.770 0 0 1
C3526 RECT_CLOSED 0.830 0.830 0 0 1
C3527 RECT_CLOSED 0.740 0.740 0 0 1
C3528 RECT_CLOSED 1.220 1.220 0 0 1
C3529 RECT_CLOSED 0.940 0.940 0 0 1
C3530 RECT_CLOSED 0.710 0.710 0 0 1
C3531 RECT_CLOSED 1.150 1.150 0 0 1
C3532 RECT_CLOSED 0.880 0.880 0 0 1
C3533 RECT_CLOSED 0.740 0.740 0 0 1
C3534 RECT_CLOSED 0.830 0.830 0 0 1
C3535 RECT_CLOSED 0.800 0.800 0 0 1
C3536 RECT_CLOSED 0.770 0.770 0 0 1
C3537 RECT_CLOSED 0.920 0.920 0 0 1
C3538 RECT_CLOSED 0.930 0.930 0 0 1
C3539 RECT_CLOSED 0.780 0.780 0 0 1
C3540 RECT_CLOSED 0.620 0.620 0 0 1
C3541 RECT_CLOSED 0.660 0.660 0 0 1
C3542 RECT_CLOSED 0.750 0.750 0 0 1
C3543 RECT_CLOSED 0.480 0.480 0 0 1
C3544 RECT_CLOSED 0.640 0.640 0 0 1
C3545 RECT_CLOSED 0.890 0.890 0 0 1
C3546 RECT_CLOSED 0.740 0.740 0 0 1
C3547 RECT_CLOSED 0.890 0.890 0 0 1
C3548 RECT_CLOSED 1.300 1.300 0 0 1
C3549 RECT_CLOSED 0.920 0.920 0 0 1
C3550 RECT_CLOSED 0.790 0.790 0 0 1
C3551 RECT_CLOSED 1.490 1.490 0 0 1
C3552 RECT_CLOSED 0.760 0.760 0 0 1
C3553 RECT_CLOSED 0.910 0.910 0 0 1
C3554 RECT_CLOSED 1.310 1.310 0 0 1
C3555 RECT_CLOSED 1.230 1.230 0 0 1
C3556 RECT_CLOSED 0.650 0.650 0 0 1
C3557 RECT_CLOSED 0.680 0.680 0 0 1
C3558 RECT_CLOSED 0.750 0.750 0 0 1
C3559 RECT_CLOSED 0.960 0.960 0 0 1
C3560 RECT_CLOSED 0.450 0.450 0 0 1
C3561 RECT_CLOSED 0.640 0.640 0 0 1
C3562 RECT_CLOSED 0.640 0.640 0 0 1
C3563 RECT_CLOSED 0.640 0.640 0 0 1
C3564 RECT_CLOSED 0.800 0.800 0 0 1
C3565 RECT_CLOSED 0.850 0.850 0 0 1
C3566 RECT_CLOSED 0.680 0.680 0 0 1
C3567 RECT_CLOSED 0.740 0.740 0 0 1
C3568 RECT_CLOSED 0.830 0.830 0 0 1
C3569 RECT_CLOSED 0.940 0.940 0 0 1
C3570 RECT_CLOSED 0.620 0.620 0 0 1
C3571 RECT_CLOSED 0.420 0.420 0 0 1
C3572 RECT_CLOSED 0.860 0.860 0 0 1
C3573 RECT_CLOSED 0.950 0.950 0 0 1
C3574 RECT_CLOSED 1.190 1.190 0 0 1
C3575 RECT_CLOSED 0.780 0.780 0 0 1
C3576 RECT_CLOSED 0.990 0.990 0 0 1
C3577 RECT_CLOSED 0.870 0.870 0 0 1
C3578 RECT_CLOSED 1.030 1.030 0 0 1
C3579 RECT_CLOSED 0.920 0.920 0 0 1
C3580 RECT_CLOSED 0.790 0.790 0 0 1
C3581 RECT_CLOSED 0.820 0.820 0 0 1
C3582 RECT_CLOSED 0.510 0.510 0 0 1
C3583 RECT_CLOSED 0.680 0.680 0 0 1
C3584 RECT_CLOSED 0.720 0.720 0 0 1
C3585 RECT_CLOSED 0.900 0.900 0 0 1
C3586 RECT_CLOSED 0.770 0.770 0 0 1
C3587 RECT_CLOSED 0.770 0.770 0 0 1
C3588 RECT_CLOSED 1.090 1.090 0 0 1
C3589 RECT_CLOSED 0.720 0.720 0 0 1
C3590 RECT_CLOSED 0.730 0.730 0 0 1
C3591 RECT_CLOSED 0.790 0.790 0 0 1
C3592 RECT_CLOSED 1.130 1.130 0 0 1
C3593 RECT_CLOSED 0.610 0.610 0 0 1
C3594 RECT_CLOSED 0.820 0.820 0 0 1
C3595 RECT_CLOSED 0.810 0.810 0 0 1
C3596 RECT_CLOSED 0.750 0.750 0 0 1
C3597 RECT_CLOSED 0.680 0.680 0 0 1
C3598 RECT_CLOSED 0.970 0.970 0 0 1
C3599 RECT_CLOSED 0.840 0.840 0 0 1
C3600 RECT_CLOSED 0.730 0.730 0 0 1
C3601 RECT_CLOSED 0.740 0.740 0 0 1
C3602 RECT_CLOSED 0.820 0.820 0 0 1
C3603 RECT_CLOSED 0.810 0.810 0 0 1
C3604 RECT_CLOSED 0.690 0.690 0 0 1
C3605 RECT_CLOSED 0.850 0.850 0 0 1
C3606 RECT_CLOSED 0.760 0.760 0 0 1
C3607 RECT_CLOSED 0.650 0.650 0 0 1
C3608 RECT_CLOSED 0.910 0.910 0 0 1
C3609 RECT_CLOSED 0.770 0.770 0 0 1
C3610 RECT_CLOSED 0.960 0.960 0 0 1
C3611 RECT_OPEN 0.530 0.530 0 0 1
C3612 RECT_OPEN 0.710 0.710 0 0 1
C3613 RECT_CLOSED 0.950 0.950 0 0 1
C3614 RECT_CLOSED 0.550 0.550 0 0 1
C3615 RECT_OPEN 0.500 0.500 0 0 1
C3616 RECT_CLOSED 0.710 0.710 0 0 1
C3617 RECT_OPEN 0.770 0.770 0 0 1
C3618 RECT_CLOSED 0.630 0.630 0 0 1
C3619 RECT_CLOSED 0.620 0.620 0 0 1
C3620 RECT_CLOSED 0.520 0.520 0 0 1
C3621 RECT_CLOSED 0.670 0.670 0 0 1
C3622 RECT_CLOSED 0.650 0.650 0 0 1
C3623 RECT_CLOSED 0.700 0.700 0 0 1
C3624 RECT_CLOSED 0.490 0.490 0 0 1
C3625 RECT_CLOSED 0.490 0.490 0 0 1
C3626 RECT_CLOSED 0.710 0.710 0 0 1
C3627 RECT_CLOSED 0.680 0.680 0 0 1
C3628 RECT_CLOSED 0.750 0.750 0 0 1
C3629 RECT_CLOSED 0.640 0.640 0 0 1
C3630 RECT_CLOSED 0.690 0.690 0 0 1
C3631 RECT_OPEN 0.480 0.480 0 0 1
C3632 RECT_OPEN 0.490 0.490 0 0 1
C3633 RECT_CLOSED 0.580 0.580 0 0 1
C3634 RECT_CLOSED 0.580 0.580 0 0 1
C3635 RECT_OPEN 0.640 0.640 0 0 1
C3636 RECT_OPEN 0.400 0.400 0 0 1
C3637 RECT_CLOSED 1.140 1.140 0 0 1
C3638 RECT_CLOSED 0.700 0.700 0 0 1
C3639 RECT_OPEN 0.660 0.660 0 0 1
C3640 RECT_CLOSED 1.350 1.350 0 0 1
C3641 RECT_OPEN 0.400 0.400 0 0 1
C3642 RECT_OPEN 0.330 0.330 0 0 1
C3643 RECT_OPEN 0.390 0.390 0 0 1
C3644 RECT_OPEN 0.540 0.540 0 0 1
C3645 RECT_OPEN 0.560 0.560 0 0 1
C3646 RECT_OPEN 0.560 0.560 0 0 1
C3647 RECT_CLOSED 0.700 0.700 0 0 1
C3648 RECT_OPEN 0.590 0.590 0 0 1
C3649 RECT_OPEN 0.480 0.480 0 0 1
C3650 RECT_OPEN 0.520 0.520 0 0 1
C3651 RECT_OPEN 0.320 0.320 0 0 1
C3652 RECT_OPEN 0.550 0.550 0 0 1
C3653 RECT_CLOSED 0.530 0.530 0 0 1
C3654 RECT_OPEN 0.420 0.420 0 0 1
C3655 RECT_CLOSED 0.730 0.730 0 0 1
C3656 RECT_OPEN 0.550 0.550 0 0 1
C3657 RECT_OPEN 0.400 0.400 0 0 1
C3658 RECT_CLOSED 1.430 1.430 0 0 1
C3659 RECT_CLOSED 0.670 0.670 0 0 1
C3660 RECT_CLOSED 0.400 0.400 0 0 1
C3661 RECT_OPEN 0.380 0.380 0 0 1
C3662 RECT_CLOSED 0.700 0.700 0 0 1
C3663 RECT_CLOSED 0.710 0.710 0 0 1
C3664 RECT_OPEN 0.830 0.830 0 0 1
C3665 RECT_OPEN 0.570 0.570 0 0 1
C3666 RECT_OPEN 0.680 0.680 0 0 1
C3667 RECT_CLOSED 0.680 0.680 0 0 1
C3668 RECT_CLOSED 0.530 0.530 0 0 1
C3669 RECT_CLOSED 0.700 0.700 0 0 1
C3670 RECT_OPEN 0.670 0.670 0 0 1
C3671 RECT_CLOSED 0.680 0.680 0 0 1
C3672 RECT_CLOSED 0.750 0.750 0 0 1
C3673 RECT_CLOSED 0.490 0.490 0 0 1
C3674 RECT_CLOSED 1.030 1.030 0 0 1
C3675 RECT_CLOSED 0.430 0.430 0 0 1
C3676 RECT_CLOSED 1.260 1.260 0 0 1
C3677 RECT_CLOSED 0.780 0.780 0 0 1
C3678 RECT_CLOSED 0.610 0.610 0 0 1
C3679 RECT_CLOSED 0.670 0.670 0 0 1
C3680 RECT_CLOSED 0.590 0.590 0 0 1
C3681 RECT_OPEN 0.370 0.370 0 0 1
C3682 RECT_OPEN 0.550 0.550 0 0 1
C3683 RECT_CLOSED 0.710 0.710 0 0 1
C3684 RECT_CLOSED 0.730 0.730 0 0 1
C3685 RECT_CLOSED 0.740 0.740 0 0 1
C3686 RECT_CLOSED 0.830 0.830 0 0 1
C3687 RECT_CLOSED 0.710 0.710 0 0 1
C3688 RECT_CLOSED 0.670 0.670 0 0 1
C3689 RECT_CLOSED 0.780 0.780 0 0 1
C3690 RECT_OPEN 0.670 0.670 0 0 1
C3691 RECT_OPEN 0.720 0.720 0 0 1
C3692 RECT_CLOSED 0.840 0.840 0 0 1
C3693 RECT_OPEN 0.460 0.460 0 0 1
C3694 RECT_CLOSED 0.510 0.510 0 0 1
C3695 RECT_CLOSED 0.760 0.760 0 0 1
C3696 RECT_OPEN 0.670 0.670 0 0 1
C3697 RECT_OPEN 0.350 0.350 0 0 1
C3698 RECT_CLOSED 0.620 0.620 0 0 1
C3699 RECT_CLOSED 0.720 0.720 0 0 1
C3700 RECT_CLOSED 0.470 0.470 0 0 1
C3701 RECT_CLOSED 0.360 0.360 0 0 1
C3702 RECT_OPEN 0.540 0.540 0 0 1
C3703 RECT_OPEN 0.400 0.400 0 0 1
C3704 RECT_CLOSED 0.470 0.470 0 0 1
C3705 RECT_OPEN 0.450 0.450 0 0 1
C3706 RECT_CLOSED 0.990 0.990 0 0 1
C3707 RECT_OPEN 1.090 1.090 0 0 1
C3708 RECT_OPEN 0.590 0.590 0 0 1
C3709 RECT_OPEN 0.860 0.860 0 0 1
C3710 RECT_OPEN 0.330 0.330 0 0 1
C3711 RECT_CLOSED 0.390 0.390 0 0 1
C3712 RECT_CLOSED 1.200 1.200 0 0 1
C3713 RECT_CLOSED 0.680 0.680 0 0 1
C3714 RECT_CLOSED 0.710 0.710 0 0 1
C3715 RECT_CLOSED 0.650 0.650 0 0 1
C3716 RECT_CLOSED 0.650 0.650 0 0 1
C3717 RECT_CLOSED 0.680 0.680 0 0 1
C3718 RECT_CLOSED 0.430 0.430 0 0 1
C3719 RECT_OPEN 0.420 0.420 0 0 1
C3720 RECT_CLOSED 0.400 0.400 0 0 1
C3721 RECT_OPEN 0.570 0.570 0 0 1
C3722 RECT_CLOSED 0.610 0.610 0 0 1
C3723 RECT_CLOSED 0.700 0.700 0 0 1
C3724 RECT_OPEN 0.400 0.400 0 0 1
C3725 RECT_CLOSED 0.710 0.710 0 0 1
C3726 RECT_CLOSED 0.520 0.520 0 0 1
C3727 RECT_OPEN 0.650 0.650 0 0 1
C3728 RECT_OPEN 0.560 0.560 0 0 1
C3729 RECT_CLOSED 0.840 0.840 0 0 1
C3730 RECT_CLOSED 0.960 0.960 0 0 1
C3731 RECT_CLOSED 1.010 1.010 0 0 1
C3732 RECT_CLOSED 0.840 0.840 0 0 1
C3733 RECT_CLOSED 0.680 0.680 0 0 1
C3734 RECT_CLOSED 0.870 0.870 0 0 1
C3735 RECT_CLOSED 0.940 0.940 0 0 1
C3736 RECT_CLOSED 0.730 0.730 0 0 1
C3737 RECT_CLOSED 1.000 1.000 0 0 1
C3738 RECT_CLOSED 0.920 0.920 0 0 1
C3739 RECT_CLOSED 0.830 0.830 0 0 1
C3740 RECT_CLOSED 0.740 0.740 0 0 1
C3741 RECT_CLOSED 1.240 1.240 0 0 1
C3742 RECT_CLOSED 1.230 1.230 0 0 1
C3743 RECT_CLOSED 0.730 0.730 0 0 1
C3744 RECT_OPEN 0.710 0.710 0 0 1
C3745 RECT_OPEN 1.330 1.330 0 0 1
C3746 RECT_CLOSED 0.470 0.470 0 0 1
C3747 RECT_OPEN 0.930 0.930 0 0 1
C3748 RECT_OPEN 0.560 0.560 0 0 1
C3749 RECT_CLOSED 0.650 0.650 0 0 1
C3750 RECT_CLOSED 0.750 0.750 0 0 1
C3751 RECT_OPEN 0.860 0.860 0 0 1
C3752 RECT_OPEN 0.550 0.550 0 0 1
C3753 RECT_CLOSED 0.600 0.600 0 0 1
C3754 RECT_CLOSED 1.230 1.230 0 0 1
C3755 RECT_CLOSED 1.030 1.030 0 0 1
C3756 RECT_CLOSED 1.050 1.050 0 0 1
C3757 RECT_CLOSED 1.210 1.210 0 0 1
C3758 RECT_CLOSED 1.640 1.640 0 0 1
C3759 RECT_CLOSED 1.270 1.270 0 0 1
C3760 RECT_CLOSED 0.840 0.840 0 0 1
C3761 RECT_CLOSED 0.710 0.710 0 0 1
C3762 RECT_CLOSED 0.640 0.640 0 0 1
C3763 RECT_CLOSED 0.800 0.800 0 0 1
C3764 RECT_CLOSED 0.460 0.460 0 0 1
C3765 RECT_OPEN 0.370 0.370 0 0 1
C3766 RECT_OPEN 0.590 0.590 0 0 1
C3767 RECT_OPEN 0.760 0.760 0 0 1
C3768 RECT_OPEN 0.510 0.510 0 0 1
C3769 RECT_CLOSED 0.780 0.780 0 0 1
C3770 RECT_CLOSED 0.700 0.700 0 0 1
C3771 RECT_CLOSED 0.840 0.840 0 0 1
C3772 RECT_CLOSED 0.720 0.720 0 0 1
C3773 RECT_CLOSED 0.620 0.620 0 0 1
C3774 RECT_CLOSED 1.360 1.360 0 0 1
C3775 RECT_CLOSED 0.800 0.800 0 0 1
C3776 RECT_CLOSED 0.990 0.990 0 0 1
C3777 RECT_CLOSED 0.950 0.950 0 0 1
C3778 RECT_CLOSED 1.070 1.070 0 0 1
C3779 RECT_CLOSED 1.570 1.570 0 0 1
C3780 RECT_CLOSED 0.520 0.520 0 0 1
C3781 RECT_OPEN 0.400 0.400 0 0 1
C3782 RECT_CLOSED 0.570 0.570 0 0 1
C3783 RECT_OPEN 0.650 0.650 0 0 1
C3784 RECT_CLOSED 0.100 1.250 0 0 1
C3785 RECT_CLOSED 1.300 1.330 0 0 1
C3786 RECT_CLOSED 0.900 1.350 0 0 1
C3787 RECT_CLOSED 1.200 1.240 0 0 1
C3788 RECT_CLOSED 0.900 1.220 0 0 1
C3789 RECT_CLOSED 0.900 1.060 0 0 1
C3790 RECT_CLOSED 1.200 1.290 0 0 1
C3791 RECT_CLOSED 0.900 0.940 0 0 1
C3792 RECT_CLOSED 0.900 1.110 0 0 1
C3793 RECT_CLOSED 1.500 1.520 0 0 1
C3794 RECT_CLOSED 1.900 1.870 0 0 1
C3795 RECT_CLOSED 0.900 1.160 0 0 1
C3796 RECT_OPEN 1.100 1.060 0 0 1
C3797 RECT_OPEN 1.100 1.090 0 0 1
C3798 RECT_CLOSED 0.900 0.400 0 0 1
C3799 RECT_CLOSED 0.900 1.060 0 0 1
C3800 RECT_CLOSED 0.300 0.690 0 0 1
C3801 RECT_CLOSED 1.500 0.960 0 0 1
C3802 RECT_CLOSED 0.600 1.130 0 0 1
C3803 RECT_CLOSED 0.600 0.910 0 0 1
C3804 RECT_CLOSED 0.600 0.590 0 0 1
C3805 RECT_CLOSED 1.200 1.530 0 0 1
C3806 RECT_CLOSED 0.600 0.730 0 0 1
C3807 RECT_CLOSED 0.600 0.750 0 0 1
C3808 RECT_CLOSED 0.600 1.020 0 0 1
C3809 RECT_CLOSED 0.600 0.810 0 0 1
C3810 RECT_CLOSED 0.600 0.800 0 0 1
C3811 RECT_CLOSED 1.200 2.130 0 0 1
C3812 RECT_CLOSED 1.500 1.210 0 0 1
C3813 RECT_CLOSED 0.300 1.030 0 0 1
C3814 RECT_CLOSED 0.900 1.080 0 0 1
C3815 RECT_CLOSED 0.900 1.350 0 0 1
C3816 RECT_CLOSED 0.900 1.050 0 0 1
C3817 RECT_OPEN 0.600 0.650 0 0 1
C3818 RECT_CLOSED 0.900 0.990 0 0 1
C3819 RECT_CLOSED 0.900 0.880 0 0 1
C3820 RECT_CLOSED 0.900 0.900 0 0 1
C3821 RECT_CLOSED 0.900 0.900 0 0 1
C3822 RECT_CLOSED 0.900 0.900 0 0 1
C3823 RECT_CLOSED 0.900 0.900 0 0 1
C3824 RECT_CLOSED 0.900 0.900 0 0 1
C3825 RECT_CLOSED 0.900 0.900 0 0 1
C3826 RECT_CLOSED 0.900 0.900 0 0 1
C3827 RECT_CLOSED 0.900 0.900 0 0 1
C3828 RECT_CLOSED 0.900 0.900 0 0 1
C3829 RECT_CLOSED 0.900 0.900 0 0 1
C3830 RECT_CLOSED 0.900 0.900 0 0 1
C3831 RECT_CLOSED 0.900 0.900 0 0 1
C3832 RECT_CLOSED 0.900 0.900 0 0 1
C3833 RECT_CLOSED 1.200 1.200 0 0 1
C3834 RECT_OPEN 0.600 0.600 0 0 1
C3835 RECT_OPEN 0.600 0.600 0 0 1
C3836 RECT_CLOSED 0.900 0.900 0 0 1
C3837 RECT_CLOSED 0.900 0.900 0 0 1
C3838 RECT_CLOSED 0.600 0.600 0 0 1
C3839 RECT_CLOSED 0.900 0.900 0 0 1
C3840 RECT_CLOSED 0.900 0.900 0 0 1
C3841 RECT_CLOSED 0.600 0.600 0 0 1
C3842 RECT_CLOSED 0.900 0.900 0 0 1
C3843 RECT_CLOSED 0.900 0.900 0 0 1
C3844 RECT_OPEN 0.600 0.600 0 0 1
C3845 RECT_OPEN 0.600 0.600 0 0 1
C3846 RECT_CLOSED 0.900 0.900 0 0 1
C3847 RECT_CLOSED 0.900 0.900 0 0 1
C3848 RECT_CLOSED 0.900 0.900 0 0 1
C3849 RECT_CLOSED 0.900 0.900 0 0 1
C3850 RECT_CLOSED 1.200 1.200 0 0 1
C3851 RECT_CLOSED 0.900 0.900 0 0 1
C3852 RECT_CLOSED 0.900 0.900 0 0 1
C3853 RECT_CLOSED 0.900 0.900 0 0 1
C3854 RECT_CLOSED 0.900 0.900 0 0 1
C3855 RECT_CLOSED 0.900 0.900 0 0 1
C3856 RECT_CLOSED 1.200 1.200 0 0 1
C3857 RECT_CLOSED 1.200 1.200 0 0 1
C3858 RECT_CLOSED 0.900 0.900 0 0 1
C3859 RECT_CLOSED 0.600 0.600 0 0 1
C3860 RECT_CLOSED 0.900 0.900 0 0 1
C3861 RECT_OPEN 0.600 0.600 0 0 1
C3862 RECT_CLOSED 0.900 0.900 0 0 1
C3863 RECT_CLOSED 0.900 0.900 0 0 1
C3864 RECT_OPEN 0.600 0.600 0 0 1
C3865 RECT_OPEN 0.900 0.900 0 0 1
C3866 RECT_OPEN 0.900 0.900 0 0 1
C3867 RECT_OPEN 0.900 0.900 0 0 1
C3868 RECT_OPEN 0.900 0.900 0 0 1
C3869 RECT_OPEN 0.900 0.900 0 0 1
C3870 RECT_OPEN 0.900 0.900 0 0 1
C3871 RECT_OPEN 0.900 0.900 0 0 1
C3872 RECT_OPEN 0.900 0.900 0 0 1
C3873 RECT_OPEN 0.900 0.900 0 0 1
C3874 RECT_OPEN 0.900 0.900 0 0 1
C3875 RECT_OPEN 0.900 0.900 0 0 1
C3876 RECT_OPEN 0.900 0.900 0 0 1
C3877 RECT_OPEN 0.900 0.900 0 0 1
C3878 RECT_OPEN 0.900 0.900 0 0 1
C3879 RECT_OPEN 0.900 0.900 0 0 1
C3880 RECT_OPEN 0.900 0.900 0 0 1
C3881 RECT_OPEN 0.900 0.900 0 0 1
C3882 RECT_OPEN 0.900 0.900 0 0 1
C3883 RECT_OPEN 0.600 0.600 0 0 1
C3884 RECT_OPEN 0.900 0.900 0 0 1
C3885 RECT_OPEN 0.900 0.900 0 0 1
C3886 RECT_OPEN 0.900 0.900 0 0 1
C3887 RECT_OPEN 0.900 0.900 0 0 1
C3888 RECT_OPEN 0.900 0.900 0 0 1
C3889 RECT_OPEN 0.900 0.900 0 0 1
C3890 RECT_OPEN 0.900 0.900 0 0 1
C3891 RECT_OPEN 0.900 0.900 0 0 1
C3892 RECT_OPEN 1.200 1.200 0 0 1
C3893 RECT_OPEN 1.200 1.200 0 0 1
C3894 RECT_OPEN 0.900 0.900 0 0 1
C3895 RECT_OPEN 0.900 0.900 0 0 1
C3896 RECT_OPEN 0.600 0.600 0 0 1
C3897 RECT_OPEN 0.900 0.900 0 0 1
C3898 RECT_OPEN 0.900 0.900 0 0 1
C3899 RECT_OPEN 0.900 0.900 0 0 1
C3900 RECT_OPEN 0.900 0.900 0 0 1
C3901 RECT_OPEN 0.900 0.900 0 0 1
C3902 RECT_OPEN 0.900 0.900 0 0 1
C3903 RECT_OPEN 0.900 0.900 0 0 1
C3904 RECT_OPEN 1.500 1.500 0 0 1
C3905 RECT_OPEN 0.900 0.900 0 0 1
C3906 RECT_OPEN 0.600 0.600 0 0 1
C3907 RECT_OPEN 0.900 0.900 0 0 1
C3908 RECT_OPEN 0.100 0.900 0 0 1
C3909 RECT_OPEN 0.900 0.900 0 0 1
C3910 RECT_OPEN 0.900 0.900 0 0 1
C3911 RECT_OPEN 0.900 0.900 0 0 1
C3912 RECT_OPEN 0.900 0.900 0 0 1
C3913 RECT_OPEN 0.900 0.900 0 0 1
C3914 RECT_OPEN 0.900 0.900 0 0 1
C3915 RECT_CLOSED 0.900 0.900 0 0 1
C3916 RECT_CLOSED 0.900 0.900 0 0 1
C3917 RECT_CLOSED 1.120 1.120 0 0 1
C3918 RECT_CLOSED 0.900 0.900 0 0 1
C3919 RECT_CLOSED 0.910 0.910 0 0 1
C3920 RECT_CLOSED 1.140 1.140 0 0 1
C3921 RECT_CLOSED 0.900 0.900 0 0 1
C3922 RECT_CLOSED 0.900 0.900 0 0 1
C3923 RECT_CLOSED 0.900 0.900 0 0 1
C3924 RECT_CLOSED 1.130 1.130 0 0 1
C3925 RECT_CLOSED 1.230 1.230 0 0 1
C3926 RECT_CLOSED 0.920 0.920 0 0 1
C3927 RECT_CLOSED 0.900 0.900 0 0 1
C3928 RECT_CLOSED 0.900 0.900 0 0 1
C3929 RECT_CLOSED 0.930 0.930 0 0 1
C3930 RECT_CLOSED 0.890 0.890 0 0 1
C3931 RECT_CLOSED 0.830 0.830 0 0 1
C3932 RECT_CLOSED 0.710 0.710 0 0 1
C3933 RECT_CLOSED 0.900 0.900 0 0 1
C3934 RECT_CLOSED 0.900 0.900 0 0 1
C3935 RECT_CLOSED 0.900 0.900 0 0 1
C3936 RECT_CLOSED 0.900 0.900 0 0 1
C3937 RECT_CLOSED 0.900 0.900 0 0 1
C3938 RECT_CLOSED 0.940 0.940 0 0 1
C3939 RECT_CLOSED 1.180 1.180 0 0 1
C3940 RECT_CLOSED 0.900 0.900 0 0 1
C3941 RECT_CLOSED 0.900 0.900 0 0 1
C3942 RECT_CLOSED 0.900 0.900 0 0 1
C3943 RECT_CLOSED 0.900 0.900 0 0 1
C3944 RECT_CLOSED 0.900 0.900 0 0 1
C3945 RECT_CLOSED 0.900 0.900 0 0 1
C3946 RECT_CLOSED 1.310 1.310 0 0 1
C3947 RECT_CLOSED 0.900 0.900 0 0 1
C3948 RECT_CLOSED 0.760 0.760 0 0 1
C3949 RECT_CLOSED 0.900 0.900 0 0 1
C3950 RECT_CLOSED 1.200 1.200 0 0 1
C3951 RECT_CLOSED 0.900 0.900 0 0 1
C3952 RECT_CLOSED 0.900 0.900 0 0 1
C3953 RECT_CLOSED 0.900 0.900 0 0 1
C3954 RECT_CLOSED 0.900 0.900 0 0 1
C3955 RECT_CLOSED 0.900 0.900 0 0 1
C3956 RECT_CLOSED 0.900 0.900 0 0 1
C3957 RECT_CLOSED 0.900 0.900 0 0 1
C3958 RECT_CLOSED 0.900 0.900 0 0 1
C3959 RECT_CLOSED 0.900 0.900 0 0 1
C3960 RECT_CLOSED 0.900 0.900 0 0 1
C3961 RECT_CLOSED 0.900 0.900 0 0 1
C3962 RECT_CLOSED 0.900 0.900 0 0 1
C3963 RECT_CLOSED 1.190 1.190 0 0 1
C3964 RECT_CLOSED 1.200 1.200 0 0 1
C3965 RECT_CLOSED 0.900 0.900 0 0 1
C3966 RECT_CLOSED 1.230 1.230 0 0 1
C3967 RECT_CLOSED 1.070 1.070 0 0 1
C3968 RECT_CLOSED 0.900 0.900 0 0 1
C3969 RECT_CLOSED 0.900 0.900 0 0 1
C3970 RECT_CLOSED 1.370 1.370 0 0 1
C3971 RECT_CLOSED 1.200 1.200 0 0 1
C3972 RECT_CLOSED 1.080 1.080 0 0 1
C3973 RECT_CLOSED 1.280 1.280 0 0 1
C3974 RECT_CLOSED 1.180 1.180 0 0 1
C3975 RECT_CLOSED 1.150 1.150 0 0 1
C3976 RECT_CLOSED 1.350 1.350 0 0 1
C3977 RECT_CLOSED 1.020 1.020 0 0 1
C3978 RECT_CLOSED 0.780 0.780 0 0 1
C3979 RECT_CLOSED 0.720 0.720 0 0 1
C3980 RECT_CLOSED 1.480 1.480 0 0 1
C3981 RECT_CLOSED 1.270 1.270 0 0 1
C3982 RECT_CLOSED 1.030 1.030 0 0 1
C3983 RECT_CLOSED 1.040 1.040 0 0 1
C3984 RECT_CLOSED 1.020 1.020 0 0 1
C3985 RECT_CLOSED 0.890 0.890 0 0 1
C3986 RECT_CLOSED 1.150 1.150 0 0 1
C3987 RECT_CLOSED 1.040 1.040 0 0 1
C3988 RECT_CLOSED 1.210 1.210 0 0 1
C3989 RECT_CLOSED 1.260 1.260 0 0 1
C3990 RECT_CLOSED 0.930 0.930 0 0 1
C3991 RECT_CLOSED 1.050 1.050 0 0 1
C3992 RECT_CLOSED 1.450 1.450 0 0 1
C3993 RECT_CLOSED 1.010 1.010 0 0 1
C3994 RECT_CLOSED 1.070 1.070 0 0 1
C3995 RECT_CLOSED 1.060 1.060 0 0 1
C3996 RECT_CLOSED 0.690 0.690 0 0 1
C3997 RECT_CLOSED 1.410 1.410 0 0 1
C3998 RECT_CLOSED 0.930 0.930 0 0 1
C3999 RECT_CLOSED 1.410 1.410 0 0 1
C4000 RECT_CLOSED 1.240 1.240 0 0 1
C4001 RECT_CLOSED 1.160 1.160 0 0 1
C4002 RECT_CLOSED 1.380 1.380 0 0 1
C4003 RECT_CLOSED 0.760 0.760 0 0 1
C4004 RECT_CLOSED 1.090 1.090 0 0 1
C4005 RECT_CLOSED 0.970 0.970 0 0 1
C4006 RECT_CLOSED 0.850 0.850 0 0 1
C4007 RECT_CLOSED 0.920 0.920 0 0 1
C4008 RECT_CLOSED 0.940 0.940 0 0 1
C4009 RECT_CLOSED 1.080 1.080 0 0 1
C4010 RECT_CLOSED 0.880 0.880 0 0 1
C4011 RECT_CLOSED 0.910 0.910 0 0 1
C4012 RECT_CLOSED 0.930 0.930 0 0 1
C4013 RECT_CLOSED 1.230 1.230 0 0 1
C4014 RECT_CLOSED 0.900 0.900 0 0 1
C4015 RECT_CLOSED 0.930 0.930 0 0 1
C4016 RECT_CLOSED 0.680 0.680 0 0 1
C4017 RECT_CLOSED 0.950 0.950 0 0 1
C4018 RECT_CLOSED 0.820 0.820 0 0 1
C4019 RECT_CLOSED 1.460 1.460 0 0 1
C4020 RECT_CLOSED 0.860 0.860 0 0 1
C4021 RECT_CLOSED 0.770 0.770 0 0 1
C4022 RECT_CLOSED 0.870 0.870 0 0 1
C4023 RECT_CLOSED 1.320 1.320 0 0 1
C4024 RECT_CLOSED 1.040 1.040 0 0 1
C4025 RECT_CLOSED 0.900 0.890 0 0 1
C4026 RECT_CLOSED 0.820 0.820 0 0 1
C4027 RECT_CLOSED 0.860 0.860 0 0 1
C4028 RECT_CLOSED 1.230 1.230 0 0 1
C4029 RECT_CLOSED 1.180 1.180 0 0 1
C4030 RECT_CLOSED 1.210 1.210 0 0 1
C4031 RECT_CLOSED 0.810 0.810 0 0 1
C4032 RECT_CLOSED 1.100 1.100 0 0 1
C4033 RECT_CLOSED 0.900 0.900 0 0 1
C4034 RECT_CLOSED 0.520 0.520 0 0 1
C4035 RECT_CLOSED 1.430 1.430 0 0 1
C4036 RECT_CLOSED 1.230 1.230 0 0 1
C4037 RECT_CLOSED 1.150 1.150 0 0 1
C4038 RECT_CLOSED 1.150 1.150 0 0 1
C4039 RECT_CLOSED 0.690 0.690 0 0 1
C4040 RECT_CLOSED 0.950 0.950 0 0 1
C4041 RECT_CLOSED 0.990 0.990 0 0 1
C4042 RECT_CLOSED 0.830 0.830 0 0 1
C4043 RECT_CLOSED 0.950 0.950 0 0 1
C4044 RECT_CLOSED 0.630 0.630 0 0 1
C4045 RECT_CLOSED 0.530 0.530 0 0 1
C4046 RECT_CLOSED 0.660 0.660 0 0 1
C4047 RECT_CLOSED 0.810 0.810 0 0 1
C4048 RECT_CLOSED 0.830 0.830 0 0 1
C4049 RECT_CLOSED 0.660 0.660 0 0 1
C4050 RECT_CLOSED 0.820 0.820 0 0 1
C4051 RECT_OPEN 0.410 0.410 0 0 1
C4052 RECT_CLOSED 0.760 0.760 0 0 1
C4053 RECT_CLOSED 0.640 0.640 0 0 1
C4054 RECT_CLOSED 0.920 0.920 0 0 1
C4055 RECT_CLOSED 0.670 0.670 0 0 1
C4056 RECT_CLOSED 0.600 0.600 0 0 1
C4057 RECT_CLOSED 0.590 0.590 0 0 1
C4058 RECT_CLOSED 0.550 0.550 0 0 1
C4059 RECT_CLOSED 0.370 0.370 0 0 1
C4060 RECT_CLOSED 0.630 0.630 0 0 1
C4061 RECT_CLOSED 0.690 0.690 0 0 1
C4062 RECT_CLOSED 0.880 0.880 0 0 1
C4063 RECT_CLOSED 0.620 0.620 0 0 1
C4064 RECT_CLOSED 0.330 0.330 0 0 1
C4065 RECT_CLOSED 1.350 1.350 0 0 1
C4066 RECT_CLOSED 0.600 0.600 0 0 1
C4067 RECT_OPEN 0.830 0.830 0 0 1
C4068 RECT_CLOSED 0.810 0.810 0 0 1
C4069 RECT_CLOSED 0.730 0.730 0 0 1
C4070 RECT_CLOSED 0.390 0.390 0 0 1
C4071 RECT_CLOSED 0.740 0.740 0 0 1
C4072 RECT_CLOSED 0.680 0.680 0 0 1
C4073 RECT_CLOSED 1.150 1.150 0 0 1
C4074 RECT_CLOSED 1.240 1.240 0 0 1
C4075 RECT_CLOSED 1.010 1.010 0 0 1
C4076 RECT_CLOSED 0.350 0.350 0 0 1
C4077 RECT_CLOSED 0.850 0.850 0 0 1
C4078 RECT_CLOSED 0.670 0.670 0 0 1
C4079 RECT_CLOSED 0.540 0.540 0 0 1
C4080 RECT_OPEN 0.730 0.730 0 0 1
C4081 RECT_OPEN 0.230 0.230 0 0 1
C4082 RECT_CLOSED 0.570 0.570 0 0 1
C4083 RECT_CLOSED 0.640 0.640 0 0 1
C4084 RECT_CLOSED 0.680 0.680 0 0 1
C4085 RECT_CLOSED 0.830 0.830 0 0 1
C4086 RECT_CLOSED 0.550 0.550 0 0 1
C4087 RECT_CLOSED 0.630 0.630 0 0 1
C4088 RECT_CLOSED 0.660 0.660 0 0 1
C4089 RECT_CLOSED 0.870 0.870 0 0 1
C4090 RECT_CLOSED 0.940 0.940 0 0 1
C4091 RECT_CLOSED 0.750 0.750 0 0 1
C4092 RECT_OPEN 0.960 0.960 0 0 1
C4093 RECT_CLOSED 0.890 0.890 0 0 1
C4094 RECT_CLOSED 0.800 0.800 0 0 1
C4095 RECT_CLOSED 0.780 0.900 0 0 1
C4096 RECT_CLOSED 0.750 0.750 0 0 1
C4097 RECT_CLOSED 0.780 0.780 0 0 1
C4098 RECT_OPEN 0.300 0.300 0 0 1
C4099 RECT_OPEN 0.450 0.450 0 0 1
C4100 RECT_CLOSED 0.900 0.900 0 0 1
C4101 RECT_CLOSED 0.830 0.830 0 0 1
C4102 RECT_CLOSED 0.820 0.820 0 0 1
C4103 RECT_CLOSED 0.850 0.850 0 0 1
C4104 RECT_CLOSED 0.670 0.670 0 0 1
C4105 RECT_CLOSED 0.730 0.730 0 0 1
C4106 RECT_CLOSED 0.970 0.970 0 0 1
C4107 RECT_OPEN 0.550 0.550 0 0 1
C4108 RECT_OPEN 0.500 0.500 0 0 1
C4109 RECT_CLOSED 0.940 0.940 0 0 1
C4110 RECT_CLOSED 0.680 0.680 0 0 1
C4111 RECT_CLOSED 0.630 0.630 0 0 1
C4112 RECT_CLOSED 0.730 0.730 0 0 1
C4113 RECT_CLOSED 0.760 0.760 0 0 1
C4114 RECT_CLOSED 0.750 0.750 0 0 1
C4115 RECT_OPEN 0.890 0.890 0 0 1
C4116 RECT_CLOSED 1.500 1.630 0 0 1
C4117 RECT_CLOSED 0.770 0.770 0 0 1
C4118 RECT_CLOSED 0.910 0.910 0 0 1
C4119 RECT_CLOSED 1.020 1.020 0 0 1
C4120 RECT_CLOSED 0.790 0.790 0 0 1
C4121 RECT_CLOSED 0.800 0.800 0 0 1
C4122 RECT_OPEN 1.000 1.000 0 0 1
C4123 RECT_CLOSED 0.930 0.930 0 0 1
C4124 RECT_CLOSED 1.090 1.090 0 0 1
C4125 RECT_CLOSED 0.670 0.670 0 0 1
C4126 RECT_CLOSED 0.720 0.720 0 0 1
C4127 RECT_CLOSED 1.200 1.200 0 0 1
C4128 RECT_OPEN 0.560 0.560 0 0 1

[TIMESERIES]
STORM 0:00 3.500
STORM 1:00 0.500
STORM 2:00 9.400
STORM 3:00 1.200
STORM 4:00 4.300
STORM 5:00 3.300
STORM 6:00 3.800
STORM 7:00 3.000
STORM 8:00 1.700
STORM 9:00 1.900
STORM 10:00 1.100
STORM 11:00 1.700
STORM 12:00 1.300
STORM 13:00 2.300
STORM 14:00 1.400
STORM 15:00 1.300
STORM 16:00 0.200
STORM 17:00 0.500
STORM 18:00 2.300
STORM 19:00 1.400
STORM 20:00 2.200
STORM 21:00 1.600
STORM 22:00 1.800
STORM 23:00 1.900
STORM 24:00 2.900
STORM 25:00 2.500
STORM 26:00 3.200
STORM 27:00 2.800
STORM 28:00 1.200
STORM 29:00 3.400
STORM 30:00 6.500
STORM 31:00 11.500
STORM 32:00 14.500
STORM 33:00 14.400
STORM 34:00 12.100
STORM 35:00 9.400
STORM 36:00 8.900
STORM 37:00 7.100
STORM 38:00 7.700
STORM 39:00 9.300
STORM 40:00 16.500
STORM 41:00 15.800
STORM 42:00 7.600
STORM 43:00 8.500
STORM 44:00 7.800
STORM 45:00 9.500
STORM 46:00 5.200
STORM 47:00 3.500
STORM 48:00 0.000

[REPORT]
INPUT NO
CONTROLS NO
SUBCATCHMENTS NONE
NODES NONE
LINKS NONE

[COORDINATES]
N0 414555.39 1436767.88
N1 414384.42 1436962.84
N2 414308.15 1436882.78
N3 414329.01 1437000.94
N4 414054.60 1437097.68
N5 414877.81 1436869.41
N6 415737.60 1435898.50
N7 415022.06 1436976.13
N8 414570.24 1437537.14
N9 414541.15 1437669.18
N10 414262.20 1437314.25
N11 414547.07 1437722.69
N12 414263.00 1437676.01
N13 415138.88 1436592.00
N14 415106.73 1436684.45
N15 415749.27 1435920.69
N16 415776.59 1438513.55
N17 415749.38 1435922.69
N18 415764.00 1436091.19
N19 415747.65 1438517.17
N20 415041.10 1436996.87
N21 414019.88 1436918.18
N22 414258.82 1436889.24
N23 414277.68 1437023.44
N24 414645.70 1438053.51
N25 415236.38 1438147.35
N26 415733.79 1434398.16
N27 415733.91 1434439.08
N28 415695.18 1434720.00
N29 415561.28 1434772.06
N30 415706.18 1434735.01
N31 415698.83 1434885.11
N32 415782.66 1434633.03
N33 415689.63 1434571.16
N34 415778.24 1434428.66
N35 415961.38 1434446.35
N36 416124.31 1434275.43
N37 415977.50 1434254.75
N38 416279.20 1434382.02
N39 416394.59 1434414.52
N40 416863.16 1434706.63
N41 415847.33 1433786.11
N42 415732.75 1434273.30
N43 415783.19 1434271.82
N44 416398.63 1434387.52
N45 416285.52 1434358.89
N46 416270.95 1434417.43
N47 416297.95 1434235.75
N48 416538.72 1434840.32
N49 416819.23 1434849.54
N50 416401.63 1434374.02
N51 416379.96 1434526.26
N52 415248.21 1433871.99
N53 415480.24 1433773.29
N54 416811.39 1434770.27
N55 416842.02 1434964.05
N56 416806.47 1434756.90
N57 416800.18 1434647.76
N58 416821.85 1434892.22
N59 416728.79 1434891.06
N60 416822.95 1434935.35
N61 416752.78 1434936.67
N62 416670.20 1434850.65
N63 416765.97 1434849.92
N64 416628.91 1434789.06
N65 416621.06 1434848.03
N66 416549.30 1434717.30
N67 416416.98 1434824.98
N68 416706.34 1435287.73
N69 416009.22 1434913.15
N70 416428.88 1435138.38
N71 416645.93 1435254.51
N72 416549.20 1434718.85
N73 416761.83 1434735.47
N74 415847.56 1433931.76
N75 415476.93 1433859.79
N76 415729.24 1433796.42
N77 415724.35 1433971.29
N78 415454.26 1434038.91
N79 415458.64 1434052.06
N80 415554.31 1434087.16
N81 415685.83 1434038.32
N82 415369.18 1434200.64
N83 415540.64 1434228.99
N84 416021.48 1434058.09
N85 415745.90 1434032.49
N86 415901.86 1433992.76
N87 416030.01 1434010.18
N88 415736.30 1434155.40
N89 415777.21 1434161.69
N90 415964.66 1434061.58
N91 415779.54 1434107.93
N92 416694.67 1435627.07
N93 416365.05 1435692.43
N94 416260.03 1435719.63
N95 415744.60 1435846.61
N96 415745.04 1435850.04
N97 415697.60 1435730.07
N98 415743.34 1435826.37
N99 415759.54 1435839.15
N100 415690.72 1435712.51
N101 415702.15 1435725.30
N102 415996.34 1435101.75
N103 416002.03 1434975.54
N104 415992.91 1434970.71
N105 416047.76 1434997.64
N106 415866.61 1435097.06
N107 415986.16 1435105.43
N108 415823.12 1435204.69
N109 415979.55 1435215.94
N110 415978.77 1435351.86
N111 415990.26 1435205.73
N112 415756.34 1434396.77
N113 415685.55 1434480.59
N114 415728.95 1434199.55
N115 415779.59 1434196.63
N116 415744.96 1434042.23
N117 415795.54 1434552.48
N118 415623.71 1434580.10
N119 415962.16 1434490.37
N120 415782.82 1434472.89
N121 416229.96 1434204.33
N122 416197.66 1434426.39
N123 415945.74 1434653.77
N124 415796.34 1434604.01
N125 415731.87 1434231.17
N126 415781.65 1434229.80
N127 415782.83 1434297.59
N128 415955.23 1434314.32
N129 415937.35 1434927.85
N130 415950.77 1434881.14
N131 415981.04 1434241.25
N132 415780.04 1434200.05
N133 415777.30 1434155.16
N134 415945.51 1434184.29
N135 415784.26 1434340.61
N136 415953.75 1434362.10
N137 415782.69 1434251.03
N138 415957.38 1434272.62
N139 415791.54 1434380.62
N140 415964.17 1434401.89
N141 416230.41 1434424.08
N142 416262.36 1434230.11
N143 416115.68 1434111.77
N144 416186.88 1434198.38
N145 416100.52 1434081.96
N146 416086.39 1434181.10
N147 416061.68 1434079.31
N148 416048.63 1434174.69
N149 416067.06 1434422.26
N150 416389.71 1434450.81
N151 416148.41 1434423.78
N152 416141.24 1434491.04
N153 416186.91 1434495.33
N154 416197.44 1434426.51
N155 416238.44 1434425.83
N156 415962.47 1434483.40
N157 416237.11 1434703.98
N158 416085.13 1434695.26
N159 416174.88 1434534.63
N160 416055.34 1434528.68
N161 415947.66 1434787.25
N162 416078.71 1434833.31
N163 416078.50 1434725.25
N164 416087.48 1434791.92
N165 416205.75 1434555.32
N166 416262.74 1434608.90
N167 416282.15 1434427.91
N168 416260.60 1434618.64
N169 416266.28 1434593.19
N170 416443.06 1434627.38
N171 416247.43 1434744.21
N172 416363.40 1434753.59
N173 416374.05 1434759.31
N174 416367.90 1434950.44
N175 416235.71 1434779.30
N176 416365.49 1434798.26
N177 416156.89 1434787.61
N178 416088.00 1434782.51
N179 416349.08 1435399.40
N180 416452.85 1435388.80
N181 416412.24 1435158.67
N182 416371.88 1435692.41
N183 415886.58 1433958.52
N184 415458.46 1433921.67
N185 415324.87 1433898.74
N186 415399.67 1434062.19
N187 415404.02 1434138.38
N188 415384.66 1433977.30
N189 416480.51 1435104.49
N190 416527.14 1435101.58
N191 416041.85 1433978.51
N192 416007.71 1434167.62
N193 415934.97 1434714.52
N194 416234.62 1434205.09
N195 415559.68 1433963.94
N196 415732.38 1434291.99
N197 416032.39 1434723.73
N198 416026.43 1434831.36
N199 416173.51 1434618.13
N200 416255.14 1434639.67
N201 416248.59 1434878.36
N202 416423.70 1434717.46
N203 416548.57 1434725.71
N204 416572.11 1434547.80
N205 416465.61 1434441.62
N206 416438.85 1434667.76
N207 416262.54 1434649.60
N208 415614.89 1434496.62
N209 415610.92 1434477.50
N210 415614.78 1434603.02
N211 415842.62 1433808.35
N212 416831.07 1435002.57
N213 415822.81 1434996.44
N214 415894.56 1434909.51
N215 415956.26 1434940.85
N216 415614.51 1435334.17
N217 415976.43 1435330.41
N218 415995.02 1434954.00
N219 416064.96 1434267.65
N220 419002.24 1438598.23
N221 419150.07 1438012.63
N222 419036.42 1438568.15
N223 418851.03 1438325.28
N224 418545.47 1438342.77
N225 419167.21 1438310.64
N226 419056.50 1438313.39
N227 418974.92 1438488.60
N228 418694.45 1438333.70
N229 418557.74 1438420.48
N230 418455.03 1438012.02
N231 419153.44 1438310.68
N232 419151.73 1438208.49
N233 418566.93 1438262.41
N234 418532.98 1438262.95
N235 419160.74 1438099.64
N236 418514.60 1438134.05
N237 418697.78 1438321.31
N238 418685.50 1438129.13
N239 418841.18 1438221.46
N240 418829.43 1438023.64
N241 419495.17 1438427.02
N242 419538.92 1438295.06
N243 419225.73 1437924.93
N244 419484.91 1437921.30
N245 419224.46 1437860.79
N246 419469.40 1437846.25
N247 419172.51 1437489.34
N248 419054.00 1437462.37
N249 418891.35 1437469.26
N250 419251.72 1437393.33
N251 418889.84 1437401.03
N252 418799.04 1437722.91
N253 418716.17 1437680.13
N254 419173.69 1437670.05
N255 419320.70 1437654.80
N256 419172.76 1437538.44
N257 419384.84 1437523.78
N258 419165.94 1437875.78
N259 419026.37 1437876.19
N260 419163.40 1437822.37
N261 419007.08 1437808.12
N262 419161.84 1437735.67
N263 419022.59 1437733.53
N264 419164.37 1437672.18
N265 418992.03 1437669.36
N266 419164.34 1437664.43
N267 418864.17 1437669.07
N268 418881.15 1437541.40
N269 419173.49 1437602.14
N270 419041.51 1437602.75
N271 419008.58 1437726.27
N272 418857.51 1437727.38
N273 419265.15 1437277.39
N274 418887.36 1437292.43
N275 419242.81 1437277.23
N276 418910.14 1436778.31
N277 418700.26 1436660.48
N278 419308.16 1436925.35
N279 418925.36 1436348.38
N280 418888.36 1436341.52
N281 418831.66 1436310.72
N282 418826.20 1436335.40
N283 418938.97 1436622.62
N284 418764.43 1436573.03
N285 418818.50 1436334.32
N286 419228.69 1436491.38
N287 419219.52 1436246.44
N288 418987.27 1436487.77
N289 419308.19 1436492.70
N290 419297.61 1436246.32
N291 419222.62 1436343.42
N292 419087.27 1436490.80
N293 419293.21 1436858.59
N294 419148.37 1436874.05
N295 419294.50 1436928.04
N296 419318.68 1437186.43
N297 419220.68 1437125.67
N298 419064.95 1437126.90
N299 418864.99 1436951.86
N300 419136.93 1436895.10
N301 419095.64 1436941.67
N302 418911.58 1436715.71
N303 418807.02 1437116.93
N304 418896.37 1436779.24
N305 418719.57 1436733.64
N306 418878.67 1436844.54
N307 418715.65 1436802.33
N308 418865.04 1436895.34
N309 418702.13 1436852.80
N310 418863.43 1436901.76
N311 418849.50 1436956.00
N312 418685.38 1436911.25
N313 418810.35 1437104.97
N314 418645.48 1437061.88
N315 418773.14 1437102.98
N316 418600.80 1437209.22
N317 418502.20 1437642.27
N318 418716.61 1437646.95
N319 418567.81 1437604.59
N320 418890.25 1437465.83
N321 418532.59 1437468.21
N322 418603.24 1437410.83
N323 418744.56 1437413.73
N324 418520.00 1437683.36
N325 418692.78 1437692.14
N326 418700.45 1437755.27
N327 418495.55 1437743.04
N328 418994.94 1437810.14
N329 418856.34 1437809.44
N330 418837.13 1437805.08
N331 418503.77 1437807.94
N332 418853.11 1437891.29
N333 418505.73 1437885.24
N334 418528.49 1437988.47
N335 418839.19 1437988.11
N336 419080.58 1436133.37
N337 419084.82 1436171.85
N338 419165.11 1436110.78
N339 419141.74 1436167.26
N340 419332.14 1437225.98
N341 419414.79 1437677.08
N342 419171.16 1437956.28
N343 418691.65 1438229.97
N344 419441.12 1438116.18
N345 418788.78 1436336.07
N346 418979.01 1436373.55
N347 419007.36 1436275.92
N348 418919.10 1436691.36
N349 419219.48 1436159.40
N350 418980.93 1436248.68
N351 418702.86 1437064.70
N352 418834.46 1437007.36
N353 418785.41 1436994.89
N354 418713.72 1437030.50
N355 418677.55 1436902.86
N356 418487.35 1437902.88
N357 419307.01 1436903.78
N358 418720.12 1436662.97
N359 419303.42 1436156.72
N360 418873.50 1437301.98
N361 418875.13 1437264.15
N362 418856.18 1437976.89
N363 418884.23 1437186.49
N364 418935.28 1436695.96
N365 418956.79 1436229.73
N366 419113.17 1436371.50
N367 418948.98 1436263.71
N368 418922.68 1436358.90
N369 419083.25 1436155.70
N370 418840.45 1436275.75
N371 419327.22 1442734.00
N372 419221.53 1442707.33
N373 419353.04 1442591.92
N374 419223.19 1442607.01
N375 419361.07 1442632.49
N376 419465.74 1442567.48
N377 419450.34 1442381.17
N378 419505.03 1442730.72
N379 419461.50 1442527.90
N380 419361.55 1442534.72
N381 419359.50 1442466.71
N382 419448.93 1442458.26
N383 419447.94 1442450.30
N384 419359.92 1442459.63
N385 419454.22 1442523.06
N386 419441.57 1442349.01
N387 419363.06 1442532.94
N388 416588.78 1442714.85
N389 416873.93 1442674.62
N390 416589.56 1442721.60
N391 416874.07 1442684.02
N392 417411.46 1442398.05
N393 417535.29 1442362.40
N394 417644.72 1442227.15
N395 418271.38 1442603.41
N396 418103.75 1442384.93
N397 418053.16 1442474.11
N398 417773.04 1442315.35
N399 417941.07 1442410.52
N400 417956.06 1442200.78
N401 417952.50 1442243.59
N402 417959.89 1442250.32
N403 418023.16 1442232.99
N404 418014.09 1442170.75
N405 418039.92 1442323.96
N406 417706.47 1442133.95
N407 418284.17 1442017.43
N408 417709.22 1442112.71
N409 418407.07 1441998.27
N410 418172.67 1441895.89
N411 418198.66 1442031.95
N412 418334.79 1442046.92
N413 418311.81 1442051.63
N414 418080.03 1442066.04
N415 418172.74 1442540.33
N416 418155.52 1442402.69
N417 418332.90 1442360.02
N418 418171.10 1442498.31
N419 418311.30 1442464.60
N420 418352.52 1442394.91
N421 418331.26 1442392.66
N422 417996.06 1442599.03
N423 418135.79 1442550.28
N424 417612.45 1442639.77
N425 417976.68 1442462.72
N426 417824.40 1442519.14
N427 417850.51 1442585.09
N428 417742.15 1442536.08
N429 417866.49 1442416.38
N430 417620.05 1442749.68
N431 417600.24 1442653.08
N432 417490.36 1442676.41
N433 417514.94 1442773.11
N434 416855.44 1442512.32
N435 417131.82 1442473.55
N436 417139.52 1442471.76
N437 417547.61 1442384.49
N438 416872.49 1442590.90
N439 417149.91 1442538.08
N440 417209.91 1442730.45
N441 417598.90 1442640.47
N442 417191.21 1442643.69
N443 417313.30 1442606.16
N444 417344.16 1442699.85
N445 417328.68 1442601.36
N446 417574.34 1442547.98
N447 417438.97 1442498.06
N448 417486.43 1442667.24
N449 417177.49 1442551.82
N450 417558.67 1442457.11
N451 417415.62 1442412.53
N452 417435.79 1442485.68
N453 417562.94 1442470.70
N454 418023.17 1441689.40
N455 418089.42 1442050.42
N456 418336.43 1442163.37
N457 418169.55 1441648.93
N458 418012.23 1441692.09
N459 418229.25 1441633.27
N460 418336.20 1441611.17
N461 418488.41 1442404.91
N462 417674.73 1441602.63
N463 417956.56 1441567.62
N464 418144.55 1441557.88
N465 418067.39 1441427.71
N466 418049.77 1441407.08
N467 417936.98 1441439.71
N468 417656.98 1441468.31
N469 417922.89 1441440.31
N470 417539.70 1441375.10
N471 417903.58 1441329.66
N472 417524.58 1441249.84
N473 417583.36 1441721.91
N474 417576.85 1441722.81
N475 417983.86 1441669.50
N476 418019.71 1441655.79
N477 418222.80 1441615.49
N478 418235.52 1441628.72
N479 418335.11 1441606.19
N480 417545.02 1441160.08
N481 417817.57 1441103.30
N482 417843.53 1441119.04
N483 417487.76 1440831.23
N484 417713.39 1440967.47
N485 417407.60 1440968.72
N486 417348.03 1441065.01
N487 417490.04 1440832.77
N488 417477.87 1440823.18
N489 417334.11 1441050.12
N490 417600.06 1442267.87
N491 417935.62 1441492.58
N492 418539.78 1442432.96
N493 418391.55 1441735.98
N494 418411.71 1441842.53
N495 418571.06 1441825.47
N496 418582.03 1441724.80
N497 418400.97 1441732.74
N498 418729.62 1441728.78
N499 418730.26 1441686.53
N500 418724.28 1441681.80
N501 418884.71 1441700.01
N502 418849.90 1441551.81
N503 418868.12 1441626.63
N504 418725.90 1441643.64
N505 419184.14 1441605.02
N506 419448.36 1441558.68
N507 419328.18 1441581.37
N508 419364.87 1441782.44
N509 419340.42 1441651.12
N510 419494.64 1441624.90
N511 419350.06 1441723.53
N512 419538.08 1441685.71
N513 419210.08 1441800.47
N514 419533.34 1441769.33
N515 419354.74 1441803.04
N516 419378.70 1442172.02
N517 419716.98 1442088.42
N518 419146.72 1442194.60
N519 419364.64 1442183.90
N520 419364.82 1441913.93
N521 419138.61 1441943.13
N522 419134.93 1441908.19
N523 419146.29 1442045.19
N524 418952.57 1442135.23
N525 418934.38 1441963.09
N526 419079.47 1441965.42
N527 419038.84 1441938.23
N528 419043.73 1442051.13
N529 419223.26 1441598.82
N530 419260.81 1441794.13
N531 419212.92 1441842.82
N532 418889.82 1441852.07
N533 418885.97 1441760.95
N534 418887.78 1441932.59
N535 418804.50 1441932.50
N536 418783.84 1441840.10
N537 418889.90 1441842.78
N538 418732.97 1441758.86
N539 419354.03 1441783.90
N540 419376.29 1442348.10
N541 419235.63 1442190.91
N542 419288.66 1442378.88
N543 418517.31 1442278.30
N544 418890.34 1442248.66
N545 418920.66 1442641.30
N546 418912.13 1442358.53
N547 419011.53 1442531.21
N548 418917.78 1442546.53
N549 418857.46 1442683.85
N550 419070.13 1442621.40
N551 418720.05 1442267.42
N552 418704.31 1442556.67
N553 419595.69 1442400.77
N554 419611.86 1442481.45
N555 419732.54 1442442.17
N556 419455.77 1442458.68
N557 419639.65 1442677.46
N558 419483.49 1442742.28
N559 419538.59 1442564.06
N560 419569.03 1442703.88
N561 418946.43 1441634.91
N562 419132.56 1442061.49
N563 418899.55 1442246.98
N564 418838.82 1442687.11
N565 419824.19 1442413.81
N566 421287.09 1442667.06
N567 421336.43 1442438.76
N568 421122.27 1442475.20
N569 421141.31 1442648.01
N570 421645.46 1442403.81
N571 421916.23 1442373.84
N572 421659.01 1442402.11
N573 421631.54 1442391.13
N574 421062.00 1442745.78
N575 421143.64 1442742.67
N576 421659.23 1442403.22
N577 421076.88 1442489.49
N578 421123.17 1442483.94
N579 421337.65 1442448.48
N580 421157.94 1442471.45
N581 421182.15 1442636.72
N582 421276.59 1442444.68
N583 421259.07 1442272.97
N584 421477.58 1442278.98
N585 421332.02 1442300.30
N586 421322.75 1442056.47
N587 420517.51 1442193.71
N588 421309.48 1442040.80
N589 420525.57 1442171.34
N590 420948.76 1441861.45
N591 420679.98 1441832.59
N592 420810.63 1441828.89
N593 420666.36 1441883.83
N594 420758.94 1441613.49
N595 420642.74 1441704.73
N596 420153.78 1442175.41
N597 420268.98 1441894.71
N598 420532.14 1442117.80
N599 420396.80 1442111.00
N600 420637.91 1441757.50
N601 420276.04 1441822.91
N602 420510.93 1442169.39
N603 420286.70 1442172.25
N604 420605.82 1441645.67
N605 421499.55 1442415.84
N606 421474.45 1442283.97
N607 420277.93 1442173.94
N608 420279.61 1442043.21
N609 419058.53 1439857.31
N610 419052.26 1439789.75
N611 419362.54 1439911.16
N612 419172.03 1439916.47
N613 419175.64 1440039.45
N614 419412.33 1440028.69
N615 419404.15 1439975.52
N616 419178.96 1439988.23
N617 419151.31 1440249.32
N618 419125.85 1440107.72
N619 419362.11 1440173.05
N620 419137.47 1440187.20
N621 419409.17 1440097.27
N622 419036.42 1440120.37
N623 419527.33 1440341.78
N624 419499.46 1440344.41
N625 419839.26 1440513.07
N626 419372.61 1440463.11
N627 419777.12 1440660.12
N628 419420.07 1440671.45
N629 419099.89 1440463.36
N630 418726.89 1440472.64
N631 419394.89 1440738.87
N632 419215.36 1440751.46
N633 419160.12 1440699.08
N634 419201.22 1440958.64
N635 419768.34 1440923.70
N636 419770.91 1441096.22
N637 419997.64 1440759.35
N638 419875.89 1440802.83
N639 420083.97 1440839.83
N640 420011.55 1440844.13
N641 420556.95 1441356.94
N642 420420.84 1441386.75
N643 419548.69 1441529.19
N644 419630.80 1441242.50
N645 419809.51 1441431.54
N646 419738.76 1441191.42
N647 419148.92 1441134.09
N648 419376.39 1441457.03
N649 418389.76 1441606.14
N650 418797.20 1441368.70
N651 419278.91 1441309.56
N652 418824.17 1441540.93
N653 418772.67 1441177.00
N654 419055.07 1441150.29
N655 419069.21 1441275.67
N656 418962.32 1441285.94
N657 418976.63 1441285.34
N658 418969.63 1441153.09
N659 418973.19 1441220.65
N660 419061.11 1441214.42
N661 419647.26 1440825.51
N662 419526.35 1440825.42
N663 419401.84 1439926.42
N664 419321.11 1440242.40
N665 419176.09 1439824.11
N666 419178.76 1440103.69
N667 419168.16 1439928.76
N668 419129.58 1439937.17
N669 419124.21 1440251.28
N670 419509.99 1440160.23
N671 419721.99 1440160.94
N672 419739.57 1440240.85
N673 419404.58 1440231.88
N674 419480.91 1440118.95
N675 419759.36 1440258.38
N676 419373.96 1440257.84
N677 419356.24 1440350.69
N678 419100.46 1440361.06
N679 419093.83 1440283.66
N680 419536.47 1440315.99
N681 419786.15 1440335.94
N682 419538.36 1440443.61
N683 419394.91 1440746.17
N684 419531.42 1440443.52
N685 419530.00 1440256.61
N686 419386.32 1440661.59
N687 418862.82 1440712.46
N688 418915.30 1440710.42
N689 418889.55 1440547.26
N690 419365.98 1440458.16
N691 419113.51 1440483.23
N692 419147.83 1440687.95
N693 419811.77 1440902.89
N694 419777.20 1440651.16
N695 419789.97 1440716.71
N696 419777.63 1440611.90
N697 419791.82 1440754.64
N698 419951.81 1440734.71
N699 419435.83 1440942.58
N700 419761.80 1441095.80
N701 419867.19 1441092.51
N702 419858.96 1441024.19
N703 420175.30 1440995.62
N704 420003.37 1440976.54
N705 420006.35 1440920.79
N706 420178.74 1440911.67
N707 419967.34 1441004.18
N708 420006.03 1440998.21
N709 420043.26 1441194.96
N710 420029.16 1441195.45
N711 420035.50 1441175.74
N712 420187.87 1441404.67
N713 420053.26 1441203.34
N714 420582.62 1441312.29
N715 419487.21 1441531.69
N716 419291.24 1441115.65
N717 419301.33 1441228.54
N718 419451.93 1441111.31
N719 419394.76 1441436.18
N720 419212.54 1441123.73
N721 420527.92 1441330.48
N722 420536.25 1441361.53
N723 419654.84 1440935.31
N724 419540.98 1440114.36
N725 420013.38 1441064.66
N726 420065.29 1441202.20
N727 420012.37 1441199.25
N728 420557.15 1441088.19
N729 420418.18 1441028.98
N730 420939.89 1440775.43
N731 420925.38 1440781.44
N732 420567.98 1440860.55
N733 420478.32 1440488.55
N734 420566.91 1440862.55
N735 420227.54 1440912.52
N736 420331.41 1440871.74
N737 420262.45 1440684.81
N738 420232.95 1440909.30
N739 420218.35 1440696.55
N740 420214.53 1440764.14
N741 420089.21 1440775.56
N742 420876.37 1440705.49
N743 420856.97 1440597.17
N744 420991.04 1440687.25
N745 420963.72 1440501.86
N746 421071.30 1440731.81
N747 421012.98 1440739.39
N748 421054.64 1440594.83
N749 421314.19 1440575.73
N750 421057.64 1440618.49
N751 421003.22 1440624.06
N752 421313.28 1441738.09
N753 420959.59 1441783.78
N754 420972.09 1441680.23
N755 420860.58 1441702.34
N756 420803.11 1441590.91
N757 420958.96 1441410.19
N758 420786.43 1441595.05
N759 420708.41 1441312.15
N760 420913.42 1441297.52
N761 420775.40 1441343.48
N762 420881.98 1441299.71
N763 420815.52 1441378.86
N764 420721.30 1441269.98
N765 420734.18 1441261.76
N766 420619.09 1441324.57
N767 420695.21 1441285.31
N768 420625.64 1441299.12
N769 420687.48 1441272.73
N770 420874.14 1441364.76
N771 420861.60 1441302.42
N772 420855.82 1441368.57
N773 420841.76 1441305.02
N774 420837.29 1441373.05
N775 420819.65 1441307.85
N776 420801.93 1441329.91
N777 420571.29 1440501.44
N778 420651.29 1440530.29
N779 420897.51 1440705.21
N780 420839.52 1440599.43
N781 420830.35 1440502.24
N782 421560.87 1441751.43
N783 421524.42 1441937.33
N784 421513.46 1441935.15
N785 421549.58 1441939.36
N786 421553.20 1442028.71
N787 421324.21 1442036.22
N788 421614.85 1442050.88
N789 421333.69 1442049.69
N790 421336.43 1441872.62
N791 421742.80 1441401.98
N792 421367.61 1441662.95
N793 421764.73 1441410.10
N794 421839.19 1441591.05
N795 421541.00 1440411.07
N796 421571.54 1440510.41
N797 421490.64 1440431.89
N798 421557.88 1440512.77
N799 421571.38 1440570.57
N800 421491.94 1440583.74
N801 421447.17 1440628.21
N802 421427.83 1440653.71
N803 421281.24 1440732.54
N804 421015.62 1440825.98
N805 420959.79 1440831.00
N806 420945.96 1440772.87
N807 421423.81 1441675.29
N808 421348.04 1441836.53
N809 420932.04 1440796.46
N810 421770.85 1441504.09
N811 420205.84 1440496.30
N812 420147.87 1440287.33
N813 419969.88 1440309.30
N814 420129.08 1440203.67
N815 420065.71 1439964.08
N816 420115.50 1440044.56
N817 420085.59 1440051.06
N818 420152.36 1440114.24
N819 420117.34 1440119.32
N820 420453.32 1440469.04
N821 420401.60 1440170.80
N822 420604.31 1440032.97
N823 421104.08 1440402.58
N824 421102.19 1440118.91
N825 421102.89 1440175.53
N826 420541.99 1440192.52
N827 421101.60 1440105.42
N828 420771.64 1440110.57
N829 421387.12 1440104.72
N830 421125.58 1440109.00
N831 421099.92 1439970.28
N832 421103.53 1440096.01
N833 421537.95 1440404.44
N834 421416.97 1440114.80
N835 421522.22 1440403.05
N836 421397.36 1440121.39
N837 421487.77 1440416.09
N838 421463.72 1440307.99
N839 421456.82 1440247.85
N840 421387.11 1440251.70
N841 421409.35 1440102.44
N842 421268.42 1439891.05
N843 421390.71 1440106.47
N844 421253.31 1439915.65
N845 419743.22 1440079.59
N846 419880.98 1440017.48
N847 421114.02 1439935.84
N848 420129.97 1440248.90
N849 419856.39 1440326.55
N850 421484.32 1440306.39
N851 414502.02 1440683.40
N852 414808.32 1440636.66
N853 414807.13 1440636.66
N854 414885.18 1440661.97
N855 414522.83 1440680.57
N856 414536.92 1440783.16
N857 414729.52 1440648.29
N858 414744.81 1440751.43
N859 414965.90 1440748.65
N860 414317.11 1440848.76
N861 414370.91 1441133.71
N862 414587.91 1441104.39
N863 414124.35 1441209.91
N864 414565.58 1441142.29
N865 414610.47 1441385.35
N866 415027.73 1441387.49
N867 414163.56 1441404.99
N868 414580.94 1441340.10
N869 414190.03 1441549.35
N870 414582.81 1441489.84
N871 414400.05 1441367.87
N872 414426.31 1441513.11
N873 414450.16 1441512.92
N874 414439.15 1441738.69
N875 414409.77 1441740.55
N876 414582.42 1441746.98
N877 414461.65 1441509.57
N878 414430.67 1442148.37
N879 414525.95 1441754.90
N880 414518.54 1441987.73
N881 414316.52 1441913.59
N882 414244.22 1441923.22
N883 414674.25 1441392.56
N884 415149.40 1442092.83
N885 414613.78 1442173.57
N886 415157.20 1442088.83
N887 415133.72 1442104.38
N888 414610.13 1441415.54
N889 414679.49 1441405.04
N890 414824.46 1441401.50
N891 414832.99 1441529.99
N892 414843.05 1441592.11
N893 414800.84 1441617.01
N894 414664.59 1441668.31
N895 414660.53 1441759.79
N896 414720.87 1441670.24
N897 414712.02 1441895.11
N898 414610.19 1441891.44
N899 414817.93 1441605.24
N900 415052.03 1441567.13
N901 414823.38 1441614.73
N902 414917.85 1441585.24
N903 414676.18 1440792.01
N904 414838.01 1440767.40
N905 414461.79 1441520.08
N906 414582.53 1441502.89
N907 414734.59 1442178.72
N908 414750.68 1441911.03
N909 414609.37 1441906.60
N910 414977.62 1441875.49
N911 414878.53 1441914.17
N912 414865.28 1442186.94
N913 414270.07 1442145.88
N914 414582.82 1442154.64
N915 414273.32 1442146.20
N916 414130.96 1441209.11
N917 415052.40 1441789.43
N918 415064.34 1441793.38
N919 415074.87 1441728.42
N920 415085.82 1441726.84
N921 415071.63 1441627.79
N922 415084.10 1441626.76
N923 415064.05 1441562.01
N924 415075.65 1441560.20
N925 415053.05 1441475.78
N926 415061.94 1441474.31
N927 415043.08 1441405.36
N928 415052.94 1441404.22
N929 415034.97 1441342.23
N930 415045.81 1441340.76
N931 415027.90 1441265.50
N932 415037.33 1441265.58
N933 415012.69 1441046.12
N934 415017.79 1441045.88
N935 415001.53 1440907.03
N936 415013.23 1440905.11
N937 415099.39 1440641.29
N938 415110.19 1440735.04
N939 414582.90 1442180.52
N940 414272.19 1442163.68
N941 414525.08 1442173.62
N942 414517.21 1442467.61
N943 414571.33 1442471.42
N944 414280.58 1442455.19
N945 414290.88 1442454.71
N946 414277.26 1442225.82
N947 414508.03 1442235.50
N948 414868.64 1442187.04
N949 414831.39 1442486.10
N950 414518.39 1440823.03
N951 414571.14 1442481.16
N952 414544.06 1440812.22
N953 414606.14 1442472.09
N954 414806.76 1441077.73
N955 414832.34 1441390.52
N956 414853.44 1441585.77
N957 414582.77 1441755.16
N958 414581.54 1441988.19
N959 414998.23 1440717.03
N960 414314.95 1440817.36
N961 414279.27 1440712.84
N962 414998.92 1441047.38
N963 415004.93 1440744.44
N964 414992.22 1441862.39
N965 414982.86 1441849.26
N966 415001.03 1440745.67
N967 415238.37 1440771.70
N968 415102.58 1440727.77
N969 415266.58 1440918.37
N970 415265.59 1440842.18
N971 415428.34 1440838.91
N972 415263.86 1440878.01
N973 415263.63 1440876.58
N974 415188.92 1441192.56
N975 415291.48 1441188.04
N976 415296.85 1441239.45
N977 415318.29 1441299.55
N978 415322.19 1441370.99
N979 415319.81 1441441.11
N980 415341.64 1441524.77
N981 415325.08 1441604.67
N982 415337.98 1441672.65
N983 415199.12 1441794.84
N984 415204.03 1441840.28
N985 415364.24 1441821.98
N986 415213.08 1441959.59
N987 415629.09 1441944.15
N988 415253.85 1441959.68
N989 415613.07 1441885.14
N990 415595.39 1441810.99
N991 415708.32 1442357.87
N992 415646.32 1442012.23
N993 415229.61 1442188.03
N994 415335.68 1442088.28
N995 415361.55 1442214.94
N996 415003.95 1442185.19
N997 415020.30 1442457.87
N998 415015.91 1442368.19
N999 415172.89 1442362.06
N1000 415173.12 1442363.72
N1001 415158.74 1442272.41
N1002 415313.20 1442430.42
N1003 415707.88 1442355.77
N1004 415574.05 1442382.73
N1005 415596.18 1442562.60
N1006 415586.44 1442498.82
N1007 415721.54 1442462.79
N1008 415334.32 1441611.06
N1009 415355.34 1441606.12
N1010 415338.54 1441610.38
N1011 415395.33 1441845.11
N1012 415079.15 1441007.32
N1013 415214.96 1440882.37
N1014 415207.24 1440945.43
N1015 415219.52 1440882.02
N1016 415302.42 1442487.19
N1017 415078.07 1440973.26
N1018 415181.25 1440885.68
N1019 415076.03 1440943.96
N1020 415151.33 1440888.65
N1021 415193.95 1441701.29
N1022 415131.12 1442106.27
N1023 415085.28 1441799.06
N1024 415209.92 1441920.89
N1025 415063.63 1440897.76
N1026 415176.75 1440833.93
N1027 415181.09 1440764.35
N1028 415184.94 1440885.23
N1029 415200.08 1441790.08
N1030 415316.33 1441827.66
N1031 415595.07 1442554.09
N1032 415751.18 1442509.70
N1033 415795.83 1442291.03
N1034 416424.65 1442120.45
N1035 415845.78 1442278.71
N1036 415890.08 1442476.10
N1037 416202.99 1442183.94
N1038 416248.62 1442391.62
N1039 416217.06 1442246.83
N1040 416298.97 1442224.24
N1041 416305.06 1442231.30
N1042 416442.00 1442193.28
N1043 416422.69 1442188.69
N1044 416439.15 1442181.01
N1045 416232.89 1442317.34
N1046 416455.75 1442255.73
N1047 416132.05 1442493.39
N1048 416483.19 1442402.40
N1049 416160.29 1442580.56
N1050 416498.34 1442497.14
N1051 416271.49 1442386.90
N1052 416312.27 1442533.76
N1053 416300.97 1442490.77
N1054 416409.10 1442462.91
N1055 416308.07 1442542.73
N1056 416320.81 1442596.22
N1057 416175.19 1442631.94
N1058 416511.57 1442570.87
N1059 415864.21 1442560.67
N1060 415605.50 1442669.41
N1061 416077.38 1442665.64
N1062 416177.81 1442638.24
N1063 415995.91 1442618.11
N1064 416157.67 1442575.15
N1065 416004.02 1442397.78
N1066 416003.74 1442448.32
N1067 415944.60 1442469.74
N1068 416070.46 1442599.97
N1069 415887.00 1442708.92
N1070 415967.83 1442691.19
N1071 415789.24 1442758.21
N1072 415970.95 1442715.96
N1073 415895.96 1442731.45
N1074 415909.04 1442790.69
N1075 416512.98 1442748.92
N1076 416405.04 1442767.94
N1077 416286.85 1442161.13
N1078 416334.33 1442369.68
N1079 415599.73 1442553.85
N1080 416109.60 1442420.79
N1081 416110.92 1442428.97
N1082 416346.68 1442367.65
N1083 416332.35 1442361.83
N1084 416469.19 1442326.58
N1085 415858.28 1442641.98
N1086 415771.15 1442657.84
N1087 416050.89 1442227.87
N1088 416577.81 1441244.39
N1089 416892.32 1441149.66
N1090 416604.76 1441335.22
N1091 416916.05 1441252.33
N1092 416551.85 1441155.99
N1093 417317.83 1441081.35
N1094 416551.61 1441114.52
N1095 417328.78 1441043.83
N1096 416912.80 1441180.45
N1097 417260.73 1441167.35
N1098 416740.87 1441772.88
N1099 416874.80 1441094.85
N1100 416992.46 1441599.04
N1101 416925.94 1441295.76
N1102 417197.59 1441268.40
N1103 417254.99 1441208.40
N1104 417523.80 1441243.09
N1105 416532.99 1441159.70
N1106 416222.58 1441172.48
N1107 416288.81 1441415.81
N1108 416262.01 1441339.03
N1109 416486.48 1441270.55
N1110 416458.39 1441159.37
N1111 416583.25 1441320.36
N1112 416337.89 1441401.28
N1113 416405.23 1441651.14
N1114 416366.59 1441497.41
N1115 416611.63 1441419.03
N1116 416392.61 1441601.30
N1117 416646.49 1441541.36
N1118 416428.50 1441709.68
N1119 416679.72 1441665.24
N1120 416387.40 1441813.77
N1121 416700.88 1441744.36
N1122 416703.42 1441757.18
N1123 416401.54 1441828.43
N1124 416534.32 1442385.44
N1125 416406.30 1442039.55
N1126 416495.58 1442481.67
N1127 416450.70 1442022.38
N1128 416752.23 1441978.23
N1129 416511.26 1442254.56
N1130 416714.54 1442210.04
N1131 416729.34 1442299.36
N1132 416948.41 1441808.75
N1133 417995.24 1441668.03
N1134 417996.71 1441686.17
N1135 416958.21 1441821.99
N1136 417598.06 1442215.01
N1137 417407.81 1441760.15
N1138 417430.17 1441914.25
N1139 417664.18 1441880.04
N1140 417636.65 1442211.58
N1141 417643.78 1441731.46
N1142 417409.83 1441747.64
N1143 417476.94 1441598.14
N1144 417404.71 1441704.97
N1145 417551.71 1441728.08
N1146 417014.46 1441597.98
N1147 417171.59 1441779.66
N1148 417148.85 1441680.85
N1149 417361.26 1441640.18
N1150 417113.78 1441630.30
N1151 417362.20 1441557.89
N1152 417369.72 1441606.42
N1153 417279.59 1441455.17
N1154 417116.77 1441434.54
N1155 417176.01 1441337.70
N1156 417519.54 1441195.99
N1157 417582.04 1441718.04
N1158 416978.72 1441897.80
N1159 417601.42 1442252.27
N1160 416783.01 1442118.81
N1161 417139.90 1441987.67
N1162 417095.02 1442063.01
N1163 417166.50 1442429.32
N1164 417306.74 1442081.29
N1165 417406.99 1442137.83
N1166 417351.89 1442167.31
N1167 416875.06 1442295.05
N1168 417062.78 1442264.84
N1169 417105.16 1442475.95
N1170 416906.61 1442401.01
N1171 417083.59 1442372.39
N1172 416863.35 1442510.30
N1173 417538.93 1442384.84
N1174 416775.65 1441941.11
N1175 416846.99 1442478.61
N1176 411972.66 1440776.08
N1177 412326.72 1440745.09
N1178 412293.24 1440208.24
N1179 412507.73 1441673.75
N1180 413153.48 1441576.15
N1181 412843.12 1441399.18
N1182 412951.02 1442122.04
N1183 413120.48 1441359.15
N1184 412981.18 1441681.10
N1185 412990.46 1441769.22
N1186 413180.12 1441738.09
N1187 413109.84 1441665.65
N1188 413123.55 1441747.12
N1189 413156.55 1441587.09
N1190 413229.77 1442076.70
N1191 413141.02 1441822.60
N1192 413169.30 1442019.49
N1193 412509.50 1441686.02
N1194 412594.80 1441671.93
N1195 413153.73 1441587.54
N1196 413307.84 1441562.39
N1197 413304.48 1441562.96
N1198 413340.22 1441790.23
N1199 413258.72 1441803.32
N1200 413288.95 1442001.30
N1201 413238.63 1441309.79
N1202 412473.38 1441441.05
N1203 413231.03 1441341.00
N1204 412492.17 1441451.17
N1205 413511.88 1442034.11
N1206 412586.30 1442173.07
N1207 412546.64 1441907.54
N1208 413192.18 1441813.59
N1209 412637.36 1442098.37
N1210 412611.78 1441899.04
N1211 412796.89 1441798.03
N1212 412902.44 1441780.00
N1213 412825.61 1441793.63
N1214 412809.93 1441704.43
N1215 412520.86 1441744.72
N1216 412581.71 1442193.77
N1217 412546.38 1441997.24
N1218 413467.80 1441772.47
N1219 413511.19 1442055.24
N1220 412490.46 1442211.87
N1221 412449.27 1442418.93
N1222 412572.11 1442449.39
N1223 412810.80 1442528.93
N1224 412949.08 1441610.20
N1225 412929.82 1441486.83
N1226 413071.58 1441464.04
N1227 414301.23 1440346.37
N1228 414206.89 1440382.38
N1229 414244.29 1440239.60
N1230 413989.09 1440851.77
N1231 413846.14 1440876.55
N1232 414147.54 1440509.87
N1233 414175.79 1440633.87
N1234 414202.79 1440389.14
N1235 414298.24 1440361.53
N1236 414117.53 1440310.55
N1237 414276.14 1440820.80
N1238 413577.26 1440925.17
N1239 413590.67 1440912.96
N1240 414274.90 1440807.75
N1241 413555.02 1440784.56
N1242 413492.86 1440741.18
N1243 413556.99 1440791.19
N1244 414008.36 1440771.53
N1245 414065.79 1440759.07
N1246 414032.89 1440535.66
N1247 414191.21 1440499.11
N1248 413488.06 1441042.57
N1249 413526.17 1441265.64
N1250 414041.76 1440668.13
N1251 413382.26 1441088.47
N1252 413412.26 1441283.03
N1253 413321.48 1440795.91
N1254 413396.96 1441281.64
N1255 414190.57 1440398.25
N1256 414306.12 1440803.23
N1257 414344.78 1440438.69
N1258 414379.54 1440560.90
N1259 414212.61 1440476.82
N1260 412939.06 1440500.83
N1261 412945.48 1441091.18
N1262 414215.33 1440621.36
N1263 414224.98 1440618.56
N1264 414338.84 1440166.86
N1265 414419.76 1440279.20
N1266 414471.68 1440236.79
N1267 414543.12 1440472.58
N1268 414452.33 1440605.14
N1269 414719.39 1440563.28
N1270 414985.03 1440268.71
N1271 415017.81 1440561.14
N1272 415073.54 1440489.96
N1273 415410.14 1440453.76
N1274 414878.02 1440381.63
N1275 414862.65 1440284.90
N1276 414728.91 1440309.10
N1277 414686.38 1440161.36
N1278 414642.82 1439926.48
N1279 415064.65 1439997.28
N1280 414800.70 1440064.34
N1281 414818.28 1439962.54
N1282 414772.93 1439955.93
N1283 414753.24 1440075.66
N1284 414715.14 1440063.50
N1285 414730.40 1439950.20
N1286 415040.34 1440269.98
N1287 414672.33 1440318.34
N1288 414695.29 1440484.61
N1289 414727.29 1440628.39
N1290 414478.23 1440005.84
N1291 414592.45 1440051.83
N1292 415001.54 1440419.07
N1293 415062.89 1440411.36
N1294 415086.37 1440606.49
N1295 415867.93 1439411.75
N1296 415614.72 1439095.22
N1297 415724.51 1439605.62
N1298 415371.72 1439420.02
N1299 415393.71 1439413.31
N1300 415371.42 1439641.10
N1301 415181.79 1439650.20
N1302 416223.47 1439859.69
N1303 415598.61 1439536.11
N1304 415894.05 1439691.15
N1305 415916.19 1440053.40
N1306 416220.42 1440034.56
N1307 416201.46 1439898.14
N1308 415888.05 1439430.38
N1309 415886.88 1439685.86
N1310 415208.95 1439773.32
N1311 415268.90 1439803.33
N1312 415199.15 1439760.85
N1313 415132.70 1439452.05
N1314 415163.73 1440194.95
N1315 415166.51 1440006.15
N1316 415166.65 1440264.50
N1317 415390.91 1440301.53
N1318 415391.98 1440013.97
N1319 415107.61 1440002.13
N1320 415398.43 1439961.31
N1321 415553.13 1439947.23
N1322 415734.92 1439959.28
N1323 416384.61 1440003.09
N1324 410271.57 1441472.69
N1325 410170.19 1441472.69
N1326 410168.85 1441462.85
N1327 410174.49 1441527.76
N1328 410128.09 1441465.31
N1329 410126.89 1441628.34
N1330 410015.41 1441594.52
N1331 410127.46 1441603.23
N1332 410024.50 1441553.35
N1333 410130.35 1441560.20
N1334 410219.44 1441611.78
N1335 410214.59 1441655.48
N1336 410342.59 1441269.18
N1337 410432.36 1441265.13
N1338 410368.36 1441590.17
N1339 410363.77 1441746.57
N1340 410291.86 1441741.82
N1341 410414.84 1441747.17
N1342 410344.80 1441748.95
N1343 410337.38 1441800.74
N1344 410250.97 1441771.16
N1345 410809.22 1441912.45
N1346 410453.20 1441837.08
N1347 410548.38 1441328.90
N1348 410484.42 1441700.05
N1349 410759.23 1441744.73
N1350 410497.65 1441668.71
N1351 410766.56 1441700.02
N1352 410919.89 1441733.70
N1353 410618.97 1441796.50
N1354 410604.01 1441831.50
N1355 410773.47 1441656.65
N1356 410921.81 1441688.57
N1357 410781.45 1441608.62
N1358 410926.72 1441632.37
N1359 410789.32 1441561.37
N1360 411097.45 1441616.34
N1361 410796.01 1441518.99
N1362 411100.55 1441568.11
N1363 410925.24 1441642.55
N1364 411141.58 1441680.12
N1365 410804.67 1441478.81
N1366 410935.52 1441502.61
N1367 410935.72 1441497.41
N1368 411150.75 1441533.33
N1369 410806.17 1441708.63
N1370 410808.64 1441802.52
N1371 410942.00 1441796.45
N1372 410806.65 1441755.64
N1373 410918.63 1441747.09
N1374 411089.91 1441732.71
N1375 410922.61 1441703.61
N1376 411032.58 1441775.03
N1377 410943.04 1441815.36
N1378 410988.69 1441783.58
N1379 410991.30 1441819.74
N1380 410930.01 1441541.67
N1381 410950.27 1441905.14
N1382 410732.32 1441339.14
N1383 410734.01 1441292.13
N1384 410730.87 1441392.46
N1385 411022.53 1441450.35
N1386 411153.70 1441470.50
N1387 411025.12 1441412.96
N1388 411158.95 1441419.61
N1389 411028.11 1441366.06
N1390 411161.09 1441374.70
N1391 411031.23 1441322.14
N1392 411162.79 1441330.23
N1393 410839.25 1441275.20
N1394 410836.54 1441408.48
N1395 411174.97 1441376.64
N1396 411391.39 1441404.70
N1397 411357.91 1441581.10
N1398 411368.18 1441538.49
N1399 411431.44 1441549.34
N1400 411386.20 1441443.20
N1401 411425.26 1441449.27
N1402 411231.64 1441430.65
N1403 411322.96 1441435.89
N1404 411158.98 1441563.38
N1405 411137.43 1441906.53
N1406 411740.77 1441605.09
N1407 411149.46 1441702.88
N1408 411214.51 1441566.41
N1409 411211.55 1441554.25
N1410 411219.20 1441474.71
N1411 411320.73 1441483.56
N1412 411322.67 1441379.15
N1413 411206.21 1441950.32
N1414 411316.17 1441582.89
N1415 411207.32 1441959.83
N1416 411323.58 1442031.34
N1417 411221.05 1441912.56
N1418 411317.84 1441932.49
N1419 411233.72 1441872.04
N1420 411323.13 1441890.67
N1421 411331.26 1441824.94
N1422 411316.45 1441937.91
N1423 411185.29 1441851.18
N1424 411231.95 1441862.98
N1425 411276.40 1441726.58
N1426 411421.11 1441742.92
N1427 411410.75 1441825.79
N1428 411515.74 1441430.84
N1429 411532.16 1441579.88
N1430 411523.10 1441426.17
N1431 411534.08 1441568.26
N1432 411732.27 1441729.54
N1433 411800.51 1441738.61
N1434 411742.27 1442209.39
N1435 411809.36 1441758.93
N1436 411744.19 1442232.83
N1437 411418.64 1441987.91
N1438 411585.31 1442021.43
N1439 411384.01 1441907.28
N1440 411512.93 1441903.44
N1441 411536.69 1441738.79
N1442 411579.90 1441757.34
N1443 411798.92 1441785.51
N1444 411527.00 1441796.00
N1445 411745.82 1441829.47
N1446 411750.98 1441780.68
N1447 411734.37 1441876.40
N1448 411518.20 1441857.19
N1449 411787.87 1441890.50
N1450 411451.09 1441827.88
N1451 411519.09 1441832.08
N1452 410263.22 1441272.32
N1453 410256.83 1441672.48
N1454 410246.75 1441741.64
N1455 411248.68 1441805.75
N1456 411449.18 1441840.05
N1457 410128.88 1441606.43
N1458 410559.35 1441769.16
N1459 410751.47 1441861.44
N1460 410761.84 1441914.93
N1461 411103.24 1441526.95
N1462 411095.15 1441673.52
N1463 411523.96 1442130.46
N1464 411404.84 1442078.42
N1465 411537.66 1441739.01
N1466 410553.04 1441329.66
N1467 410557.82 1441264.39
N1468 410941.16 1441435.46
N1469 410935.76 1441542.54
N1470 411793.86 1442269.72
N1471 410114.44 1440371.32
N1472 410531.91 1440131.51
N1473 410750.77 1440037.57
N1474 410808.00 1440197.86
N1475 410156.32 1440380.91
N1476 410752.18 1440036.79
N1477 410639.23 1440219.64
N1478 410598.20 1440408.56
N1479 410141.99 1440440.02
N1480 410770.01 1440221.10
N1481 410877.27 1440390.07
N1482 410809.51 1440396.49
N1483 410532.75 1440388.43
N1484 410313.22 1440440.46
N1485 410293.01 1440428.80
N1486 410404.18 1440869.06
N1487 410357.57 1440874.08
N1488 410401.35 1440864.87
N1489 410165.76 1440513.60
N1490 410299.33 1440473.57
N1491 410197.31 1440545.68
N1492 410281.28 1440523.07
N1493 410337.76 1440753.26
N1494 410276.10 1440764.74
N1495 410250.23 1440711.63
N1496 410355.00 1440684.19
N1497 410238.59 1440535.26
N1498 410298.21 1440761.46
N1499 410436.64 1440412.96
N1500 410555.02 1440902.08
N1501 410445.45 1440455.51
N1502 410354.54 1440476.82
N1503 410393.00 1440466.74
N1504 410425.08 1440594.71
N1505 410338.62 1440617.33
N1506 410474.06 1440583.38
N1507 410388.03 1440604.56
N1508 410349.49 1440657.89
N1509 410483.20 1440625.49
N1510 410360.15 1440701.65
N1511 410493.32 1440670.80
N1512 410588.73 1440597.83
N1513 410653.81 1440569.63
N1514 410463.94 1440538.73
N1515 410675.79 1440492.37
N1516 410454.69 1440495.30
N1517 410701.43 1440440.52
N1518 410499.27 1440397.38
N1519 410515.59 1440482.38
N1520 410694.36 1440400.51
N1521 410736.28 1440584.96
N1522 410749.64 1440393.47
N1523 410774.42 1440577.76
N1524 410664.90 1440445.07
N1525 410703.05 1440605.97
N1526 410882.91 1440493.47
N1527 410804.75 1440498.70
N1528 410804.73 1440561.63
N1529 410872.93 1440557.75
N1530 410837.70 1440560.86
N1531 410732.84 1440630.76
N1532 410778.80 1440823.72
N1533 410883.65 1440755.14
N1534 410768.80 1440784.49
N1535 410758.90 1440741.61
N1536 410874.40 1440711.70
N1537 410727.42 1440630.45
N1538 410747.69 1440693.31
N1539 410747.47 1440694.53
N1540 410860.70 1440665.85
N1541 410372.45 1440749.72
N1542 410504.01 1440722.64
N1543 410508.53 1440846.82
N1544 410580.26 1440661.12
N1545 410643.95 1440907.21
N1546 410692.80 1440621.49
N1547 410732.67 1440843.00
N1548 410613.93 1440845.04
N1549 410730.00 1440824.10
N1550 410429.32 1440863.89
N1551 410443.32 1440968.25
N1552 410277.36 1441051.74
N1553 410896.35 1440792.48
N1554 410314.77 1441016.78
N1555 410897.80 1440805.30
N1556 410421.03 1440982.26
N1557 410429.37 1441113.40
N1558 410428.62 1440981.24
N1559 410549.35 1441259.55
N1560 410439.36 1441050.99
N1561 410519.83 1441052.72
N1562 410517.75 1441080.60
N1563 410521.28 1441030.93
N1564 410840.12 1441006.78
N1565 410683.90 1440886.95
N1566 410731.18 1441021.95
N1567 410714.60 1440957.75
N1568 410846.67 1440988.84
N1569 410647.46 1440919.26
N1570 410669.17 1441025.14
N1571 410888.52 1441188.33
N1572 410738.23 1441022.04
N1573 410762.76 1441129.79
N1574 410740.12 1441134.95
N1575 410800.91 1441121.37
N1576 410592.73 1441029.48
N1577 410592.56 1441108.56
N1578 410755.72 1441099.18
N1579 410547.99 1441108.81
N1580 410441.82 1441107.17
N1581 410549.53 1441250.04
N1582 410631.55 1441127.56
N1583 410650.12 1441270.73
N1584 410644.76 1441221.97
N1585 410728.43 1441208.98
N1586 410674.74 1441104.86
N1587 410687.57 1441215.53
N1588 410684.45 1441189.22
N1589 410808.52 1441161.72
N1590 410831.25 1441217.39
N1591 410836.73 1441268.24
N1592 410743.74 1441047.02
N1593 410801.27 1441165.17
N1594 410084.49 1439037.38
N1595 410236.63 1439034.12
N1596 410295.85 1439268.95
N1597 410229.19 1439946.91
N1598 410022.49 1440008.74
N1599 410105.11 1439840.37
N1600 410135.85 1439988.25
N1601 410013.36 1439970.73
N1602 410070.35 1439955.39
N1603 410060.10 1439903.89
N1604 410002.46 1439920.00
N1605 410144.02 1439798.32
N1606 410207.74 1439784.84
N1607 410132.81 1439755.34
N1608 410198.48 1439740.74
N1609 410154.39 1439920.94
N1610 410303.94 1439890.93
N1611 410131.62 1439854.22
N1612 410292.89 1439825.04
N1613 410119.88 1439646.77
N1614 410241.97 1439675.79
N1615 410049.85 1439355.79
N1616 410075.07 1439473.72
N1617 410068.79 1439443.00
N1618 410125.28 1439540.80
N1619 410193.20 1439517.02
N1620 410113.75 1439497.15
N1621 410218.76 1439572.46
N1622 410311.18 1439514.98
N1623 410301.12 1439490.46
N1624 410586.18 1439411.12
N1625 410464.11 1439222.28
N1626 410249.16 1439684.95
N1627 410235.28 1439951.98
N1628 410292.23 1439822.95
N1629 410299.71 1439821.59
N1630 410048.84 1439244.09
N1631 410072.19 1439321.22
N1632 410109.32 1439734.62
N1633 410120.61 1439669.44
N1634 410194.84 1439520.78
N1635 410180.18 1439982.13
N1636 410191.85 1440033.85
N1637 410917.75 1439428.74
N1638 410806.86 1439106.26
N1639 411251.37 1438970.12
N1640 410466.25 1439213.43
N1641 411261.19 1438953.50
N1642 410950.94 1439058.90
N1643 410981.82 1438984.15
N1644 411013.44 1439038.68
N1645 410965.38 1438964.40
N1646 410980.94 1439048.19
N1647 410933.96 1438973.91
N1648 410789.90 1438993.95
N1649 410814.25 1439078.59
N1650 410792.97 1439003.78
N1651 410834.48 1438995.68
N1652 410808.77 1439059.47
N1653 410943.34 1439023.53
N1654 410693.60 1438925.47
N1655 411222.87 1438841.36
N1656 410943.69 1438796.70
N1657 411202.54 1438759.81
N1658 411023.89 1438712.61
N1659 411049.33 1438867.80
N1660 411040.29 1438822.60
N1661 411211.01 1438797.05
N1662 411111.06 1438674.17
N1663 411235.61 1438857.58
N1664 411194.44 1438668.04
N1665 411225.69 1438809.72
N1666 411104.64 1438665.12
N1667 411179.09 1438650.39
N1668 410060.91 1438921.22
N1669 410070.42 1438979.03
N1670 410007.89 1438893.19
N1671 409997.94 1438733.41
N1672 410446.03 1438996.94
N1673 410223.83 1438898.57
N1674 410230.33 1438962.69
N1675 410402.13 1439002.95
N1676 410391.92 1438932.97
N1677 410434.64 1438930.18
N1678 410453.87 1439040.94
N1679 410358.82 1439057.39
N1680 410236.83 1438961.01
N1681 410404.60 1438930.39
N1682 410305.09 1438907.93
N1683 410309.01 1438947.62
N1684 410265.14 1438696.15
N1685 410222.87 1438702.81
N1686 410210.67 1438620.35
N1687 410182.65 1438675.96
N1688 410254.06 1438658.36
N1689 411035.20 1438926.13
N1690 410857.58 1438964.09
N1691 410869.23 1439011.61
N1692 410853.74 1438948.18
N1693 410741.13 1438970.11
N1694 410698.34 1438950.23
N1695 410736.05 1438942.58
N1696 410684.73 1438999.27
N1697 410744.77 1438988.79
N1698 410696.63 1439025.33
N1699 410749.09 1439016.09
N1700 410730.88 1438918.82
N1701 410773.25 1439110.02
N1702 410842.96 1438901.10
N1703 410852.19 1438940.88
N1704 410552.51 1439093.26
N1705 410674.38 1439053.82
N1706 410592.01 1439033.74
N1707 410664.52 1439022.00
N1708 410576.26 1439158.88
N1709 410711.66 1439111.77
N1710 410016.98 1438653.49
N1711 410020.28 1438733.78
N1712 410254.26 1438618.33
N1713 410166.97 1438623.25
N1714 410176.02 1438736.70
N1715 410716.69 1439125.35
N1716 410570.73 1438992.00
N1717 410583.57 1439040.40
N1718 410676.35 1439058.13
N1719 410617.32 1438879.60
N1720 410518.04 1438897.50
N1721 410687.29 1439054.78
N1722 410600.65 1438822.69
N1723 410538.45 1438835.94
N1724 410532.81 1438836.63
N1725 410545.46 1438891.66
N1726 410550.12 1438890.54
N1727 410577.24 1438993.97
N1728 410648.76 1438977.26
N1729 410564.60 1438942.92
N1730 410635.47 1438925.66
N1731 410636.40 1438910.94
N1732 410680.30 1438973.07
N1733 411334.71 1439626.25
N1734 411444.25 1439596.26
N1735 411505.00 1439808.30
N1736 411687.00 1439750.87
N1737 411716.74 1439825.76
N1738 411651.91 1439763.03
N1739 411691.15 1439862.12
N1740 411530.55 1439760.11
N1741 411585.40 1439923.39
N1742 411572.14 1439745.26
N1743 411619.58 1439895.75
N1744 411609.61 1439862.38
N1745 411655.44 1439849.07
N1746 411596.58 1439823.82
N1747 411639.26 1439810.63
N1748 411587.10 1439912.11
N1749 411690.58 1439884.79
N1750 411660.99 1439890.19
N1751 411665.67 1439930.33
N1752 411641.27 1439895.79
N1753 411648.27 1439947.86
N1754 411606.48 1439733.65
N1755 411617.67 1439773.98
N1756 411589.19 1439921.17
N1757 410522.28 1439002.00
N1758 410350.54 1439012.63
N1759 410669.95 1435336.65
N1760 410623.25 1435852.41
N1761 410679.05 1435333.63
N1762 410643.35 1435865.28
N1763 410930.25 1436076.15
N1764 410318.12 1435741.69
N1765 410388.78 1435726.09
N1766 410311.88 1435790.82
N1767 410447.70 1435766.60
N1768 410374.00 1435781.77
N1769 410368.74 1435731.46
N1770 410454.11 1435771.22
N1771 410343.26 1435869.57
N1772 410348.52 1435784.83
N1773 410336.97 1435868.59
N1774 410443.70 1435771.48
N1775 410448.55 1435860.82
N1776 410252.96 1435782.49
N1777 410261.63 1435848.05
N1778 410248.53 1435786.49
N1779 410254.25 1435846.96
N1780 410044.32 1435793.23
N1781 410111.88 1435958.14
N1782 410094.59 1435841.73
N1783 410117.10 1435960.11
N1784 410107.33 1435891.02
N1785 410503.68 1435805.46
N1786 410107.89 1435897.98
N1787 410508.30 1435824.46
N1788 410228.58 1435856.89
N1789 410249.35 1435904.93
N1790 410234.11 1435856.10
N1791 410253.02 1435902.38
N1792 410238.76 1435884.73
N1793 410196.03 1435918.16
N1794 410203.20 1435924.00
N1795 410241.48 1435888.59
N1796 410687.26 1435422.97
N1797 410700.92 1435420.71
N1798 412902.12 1436424.33
N1799 413097.41 1436410.77
N1800 412988.17 1436264.69
N1801 413002.45 1436424.35
N1802 412983.72 1436265.14
N1803 412997.24 1436424.58
N1804 412888.62 1436303.60
N1805 412918.54 1436298.64
N1806 412925.71 1436303.59
N1807 412890.05 1436310.78
N1808 412896.15 1436352.46
N1809 412965.12 1436349.04
N1810 412942.02 1436351.87
N1811 412946.69 1436352.19
N1812 412958.63 1436424.59
N1813 412949.53 1436392.33
N1814 412989.25 1436331.93
N1815 413048.12 1436326.32
N1816 412906.08 1436441.13
N1817 413065.47 1436429.23
N1818 413080.96 1436628.59
N1819 412991.44 1436547.03
N1820 413078.62 1436574.41
N1821 412910.29 1436572.17
N1822 412963.17 1436592.36
N1823 412916.45 1436495.18
N1824 413070.64 1436486.40
N1825 412910.47 1436490.88
N1826 413070.29 1436478.66
N1827 413071.44 1436428.55
N1828 413088.25 1436601.92
N1829 413161.70 1436643.38
N1830 413102.16 1436954.23
N1831 413267.68 1436961.46
N1832 413102.29 1436963.41
N1833 413293.44 1436981.39
N1834 413169.54 1436965.97
N1835 413171.71 1437034.53
N1836 413183.33 1436970.68
N1837 413191.65 1437029.38
N1838 413089.86 1437043.52
N1839 413323.75 1436997.56
N1840 413292.97 1437001.74
N1841 413105.17 1437050.33
N1842 413192.64 1437034.13
N1843 413199.96 1437120.26
N1844 413149.94 1437043.56
N1845 413150.17 1437117.55
N1846 413240.10 1437020.60
N1847 413248.98 1437119.00
N1848 413284.35 1437123.87
N1849 413177.96 1437125.75
N1850 413089.98 1437116.74
N1851 413253.22 1437123.30
N1852 413301.27 1437125.81
N1853 413360.84 1436857.75
N1854 413320.10 1437009.18
N1855 413953.46 1437562.95
N1856 413331.84 1437018.54
N1857 413357.91 1437305.79
N1858 413969.95 1437564.56
N1859 413938.42 1437540.88
N1860 414002.84 1437539.90
N1861 413922.32 1437523.01
N1862 414018.48 1437513.75
N1863 413857.20 1437473.67
N1864 414012.64 1437448.52
N1865 413853.50 1437470.80
N1866 414006.77 1437443.78
N1867 413886.54 1437247.96
N1868 413912.09 1437443.52
N1869 413818.04 1437437.51
N1870 413813.18 1437269.09
N1871 413724.39 1437382.95
N1872 413575.94 1436903.86
N1873 413630.99 1437167.02
N1874 413587.16 1437230.97
N1875 413717.71 1437187.65
N1876 413599.84 1437230.49
N1877 413718.81 1437193.73
N1878 413735.55 1437275.19
N1879 413937.38 1437242.16
N1880 413562.85 1437191.46
N1881 413707.72 1437150.30
N1882 413559.80 1437187.71
N1883 413705.97 1437145.22
N1884 413626.00 1437168.48
N1885 413571.24 1436995.23
N1886 413538.58 1437131.37
N1887 413570.71 1436999.66
N1888 413356.10 1436901.23
N1889 413464.19 1437132.93
N1890 413417.79 1436861.23
N1891 413428.52 1436859.42
N1892 413614.98 1436903.74
N1893 413679.26 1436926.10
N1894 413745.94 1437128.62
N1895 413730.49 1437078.46
N1896 413835.25 1437044.29
N1897 413783.57 1437025.53
N1898 413793.43 1437058.02
N1899 413774.04 1436854.91
N1900 413980.54 1436822.86
N1901 413759.48 1436813.37
N1902 413967.35 1436765.61
N1903 413799.28 1436741.03
N1904 413958.10 1436721.07
N1905 413571.41 1436737.54
N1906 413947.77 1436676.53
N1907 413640.31 1436713.10
N1908 413946.12 1436669.24
N1909 413727.96 1436582.21
N1910 413738.16 1436689.02
N1911 413676.57 1436621.31
N1912 413685.71 1436701.46
N1913 413544.28 1436526.72
N1914 413560.36 1436639.25
N1915 413578.84 1436651.14
N1916 413608.33 1436649.17
N1917 413583.28 1436650.57
N1918 413575.00 1436568.87
N1919 413599.48 1436455.98
N1920 413602.61 1436518.24
N1921 413752.12 1436505.50
N1922 413616.28 1436623.93
N1923 413613.74 1436575.05
N1924 413764.21 1436555.45
N1925 413617.11 1436614.08
N1926 413679.53 1436597.08
N1927 413728.62 1436446.84
N1928 413870.08 1436387.78
N1929 413755.02 1436425.64
N1930 413867.57 1436381.60
N1931 413831.57 1436626.35
N1932 413937.11 1436631.33
N1933 413923.49 1436576.85
N1934 414056.76 1437163.04
N1935 413965.41 1437118.75
N1936 414037.80 1437099.95
N1937 413962.25 1437112.57
N1938 414035.83 1437094.76
N1939 413840.64 1436999.03
N1940 414009.72 1436963.12
N1941 413845.11 1437003.56
N1942 414010.71 1436967.76
N1943 413967.68 1436977.40
N1944 413993.67 1437104.62
N1945 413979.14 1437067.95
N1946 413928.31 1437080.94
N1947 413922.22 1437075.65
N1948 413977.71 1437061.09
N1949 413969.45 1437022.19
N1950 413908.55 1437038.86
N1951 413889.03 1437038.37
N1952 413968.56 1437016.00
N1953 413960.96 1436978.42
N1954 412922.25 1436271.31
N1955 412915.86 1436273.76
N1956 413117.93 1436417.79
N1957 413600.26 1436461.73
N1958 413599.85 1436851.81
N1959 413985.77 1437106.97
N1960 413245.73 1437018.81
N1961 412035.79 1435848.87
N1962 412122.20 1435872.82
N1963 412023.43 1435952.76
N1964 412129.60 1435948.44
N1965 412100.33 1435917.35
N1966 412047.83 1435916.30
N1967 412051.41 1435950.24
N1968 412044.31 1435866.54
N1969 411804.17 1436066.93
N1970 412035.59 1436056.46
N1971 411790.37 1436124.60
N1972 411924.88 1436202.69
N1973 411671.23 1436143.12
N1974 411884.67 1436446.80
N1975 411813.94 1436477.44
N1976 411897.88 1436475.07
N1977 411840.28 1436541.17
N1978 411950.55 1436564.37
N1979 412077.88 1436360.47
N1980 412077.34 1436361.47
N1981 412102.16 1436459.05
N1982 412013.34 1436391.53
N1983 412061.59 1436526.31
N1984 412009.50 1436548.70
N1985 412005.77 1436502.37
N1986 412048.77 1436485.76
N1987 411968.27 1436409.59
N1988 412012.99 1436521.60
N1989 412421.07 1436442.99
N1990 412270.49 1436497.44
N1991 412316.31 1436478.16
N1992 412279.02 1436517.54
N1993 412264.79 1436682.49
N1994 412379.53 1436679.80
N1995 412441.27 1436894.94
N1996 412202.26 1436835.20
N1997 412237.71 1436795.60
N1998 412426.20 1436794.12
N1999 411977.34 1435954.12
N2000 411992.11 1436060.47
N2001 412017.55 1436181.61
N2002 412214.24 1436166.27
N2003 412063.07 1436205.90
N2004 412476.45 1436395.92
N2005 412113.55 1436050.46
N2006 412152.99 1436175.98
N2007 412147.46 1436176.88
N2008 412169.46 1436239.07
N2009 412235.15 1436227.36
N2010 412179.04 1436012.54
N2011 412244.08 1436306.74
N2012 412265.09 1436263.55
N2013 412529.48 1436222.78
N2014 412610.13 1436208.37
N2015 412352.05 1436256.63
N2016 412369.05 1436352.25
N2017 412373.83 1436352.67
N2018 412355.84 1436255.63
N2019 412262.40 1436271.96
N2020 412529.61 1436229.42
N2021 412311.16 1436256.10
N2022 412236.29 1436041.89
N2023 412360.86 1436024.24
N2024 412296.55 1436027.43
N2025 412324.63 1436125.00
N2026 412217.78 1436153.76
N2027 412514.73 1436118.87
N2028 412341.75 1436121.29
N2029 412372.62 1436246.61
N2030 412399.18 1436242.55
N2031 412380.11 1436111.33
N2032 412383.58 1436110.55
N2033 412373.89 1436064.57
N2034 412497.12 1436038.52
N2035 412374.89 1436071.20
N2036 412498.77 1436045.59
N2037 412408.90 1436193.74
N2038 412524.36 1436180.77
N2039 412407.36 1436187.33
N2040 412619.85 1436162.66
N2041 412627.95 1436288.50
N2042 412540.27 1436307.02
N2043 412185.54 1436009.09
N2044 412296.30 1435981.53
N2045 412307.38 1435988.80
N2046 412186.86 1436016.17
N2047 412462.72 1435894.08
N2048 412544.83 1436343.51
N2049 412516.27 1436126.60
N2050 412737.16 1436080.89
N2051 412517.05 1436133.13
N2052 412737.28 1436083.33
N2053 412505.48 1436075.32
N2054 412731.47 1436029.93
N2055 412495.59 1436032.55
N2056 412735.64 1435975.39
N2057 412493.30 1435995.62
N2058 412732.44 1435923.09
N2059 412639.04 1436295.54
N2060 412635.57 1436262.81
N2061 412611.35 1436113.47
N2062 412616.75 1436140.11
N2063 412727.65 1436125.82
N2064 412631.91 1436235.95
N2065 412713.22 1436224.97
N2066 412474.81 1435944.36
N2067 412739.24 1435879.16
N2068 412733.53 1435823.32
N2069 412459.66 1435887.67
N2070 412763.95 1435804.98
N2071 412592.92 1435806.96
N2072 412758.97 1435739.08
N2073 412758.67 1435748.04
N2074 412771.76 1435771.11
N2075 412716.75 1435764.87
N2076 412745.82 1435869.62
N2077 412724.86 1435791.83
N2078 412771.56 1435775.43
N2079 412774.36 1435770.66
N2080 412817.59 1435754.60
N2081 412552.88 1436384.18
N2082 412762.13 1435916.69
N2083 412836.80 1435897.76
N2084 412764.36 1436072.18
N2085 412955.50 1436015.39
N2086 412763.95 1436078.60
N2087 412953.46 1436022.70
N2088 412850.86 1436057.64
N2089 412856.03 1436079.74
N2090 412883.47 1436045.26
N2091 412942.19 1436196.93
N2092 412901.70 1436151.49
N2093 412918.49 1436145.24
N2094 412886.19 1436014.29
N2095 412766.51 1435964.23
N2096 412573.43 1436436.43
N2097 412725.52 1436479.74
N2098 412733.21 1436410.37
N2099 412657.81 1436402.21
N2100 412828.59 1436423.01
N2101 412901.51 1436436.17
N2102 412884.77 1436562.74
N2103 412849.70 1436549.03
N2104 412772.60 1436450.84
N2105 412799.09 1436457.83
N2106 412730.84 1436483.49
N2107 412790.12 1436501.99
N2108 412806.24 1436419.88
N2109 412616.86 1436415.50
N2110 412730.15 1436435.60
N2111 412677.95 1436391.19
N2112 412731.37 1436409.94
N2113 412780.99 1436358.91
N2114 412776.06 1436273.10
N2115 412781.78 1436264.45
N2116 413015.44 1436244.58
N2117 412775.78 1436221.45
N2118 412823.82 1436219.31
N2119 412831.32 1436223.16
N2120 412899.36 1436201.93
N2121 412912.85 1436249.88
N2122 412783.09 1436269.09
N2123 413016.11 1436250.55
N2124 412788.45 1436315.86
N2125 412788.57 1436322.38
N2126 412786.32 1436364.42
N2127 412914.07 1436257.29
N2128 412920.68 1436255.06
N2129 412982.60 1436251.77
N2130 412541.20 1436496.47
N2131 412841.51 1436600.04
N2132 412545.69 1436921.26
N2133 412507.68 1436907.89
N2134 412512.68 1436533.72
N2135 412511.68 1436698.30
N2136 412539.78 1436699.64
N2137 412609.56 1436712.69
N2138 412606.87 1436926.05
N2139 412719.25 1436934.65
N2140 412742.74 1436574.91
N2141 412685.00 1436597.66
N2142 412731.02 1436608.02
N2143 412731.98 1436602.60
N2144 412691.93 1436592.55
N2145 412662.85 1436588.22
N2146 412703.21 1436559.89
N2147 412750.10 1436570.02
N2148 412726.09 1436935.07
N2149 412841.35 1436791.04
N2150 412881.23 1436814.25
N2151 412829.69 1436944.81
N2152 412730.15 1436744.39
N2153 412841.20 1436743.04
N2154 412839.76 1436664.08
N2155 413078.95 1436782.77
N2156 412731.72 1436691.63
N2157 412831.19 1436696.62
N2158 412034.75 1436032.02
N2159 412078.10 1436771.01
N2160 412484.81 1435986.80
N2161 412307.15 1435950.31
N2162 412297.29 1435953.44
N2163 412834.68 1436257.43
N2164 412827.53 1436258.45
N2165 413002.81 1436194.19
N2166 412852.20 1435933.21
N2167 413105.62 1436951.35
N2168 412535.86 1436935.34
N2169 413109.98 1436960.73
N2170 411473.37 1435218.93
N2171 411506.67 1435454.40
N2172 411478.04 1435253.87
N2173 411671.24 1435229.69
N2174 411418.86 1435265.01
N2175 411478.60 1435258.18
N2176 411387.31 1435301.60
N2177 411681.50 1435282.30
N2178 411369.31 1435338.82
N2179 411489.34 1435327.71
N2180 411682.55 1435307.41
N2181 411379.09 1435309.15
N2182 411485.25 1435302.73
N2183 411370.92 1435333.95
N2184 411682.00 1435303.09
N2185 411490.09 1435257.81
N2186 411674.07 1435233.89
N2187 411500.52 1435364.50
N2188 411686.47 1435346.54
N2189 411501.41 1435371.36
N2190 411687.47 1435351.63
N2191 411463.48 1435412.84
N2192 411690.53 1435394.53
N2193 411348.88 1435428.25
N2194 411690.76 1435399.18
N2195 411516.86 1435453.70
N2196 411693.71 1435439.42
N2197 411517.86 1435459.89
N2198 411695.14 1435444.51
N2199 411523.18 1435498.25
N2200 411698.51 1435482.65
N2201 411524.50 1435502.89
N2202 411698.97 1435488.51
N2203 411529.39 1435540.92
N2204 411701.69 1435526.66
N2205 411532.35 1435547.88
N2206 411700.95 1435533.41
N2207 411217.42 1435763.89
N2208 411692.58 1435763.15
N2209 411650.13 1435208.30
N2210 411639.23 1435768.07
N2211 411244.68 1435774.75
N2212 411289.60 1435847.05
N2213 411258.05 1435851.80
N2214 411551.33 1435853.18
N2215 411549.25 1435779.31
N2216 411554.00 1435876.18
N2217 411371.02 1435838.83
N2218 411548.08 1435823.11
N2219 411297.51 1435847.03
N2220 411631.12 1436048.46
N2221 411310.20 1435878.06
N2222 411547.40 1435880.84
N2223 411298.84 1435853.22
N2224 411361.25 1435870.49
N2225 411559.54 1435947.16
N2226 411951.62 1435878.56
N2227 411847.68 1435835.31
N2228 411883.28 1435875.68
N2229 411801.52 1435812.23
N2230 411803.02 1435875.38
N2231 411649.33 1436009.03
N2232 411960.62 1435879.86
N2233 411729.30 1435783.60
N2234 411861.50 1435780.41
N2235 411829.16 1435774.54
N2236 411978.62 1435774.07
N2237 411792.27 1435701.11
N2238 411873.42 1435709.04
N2239 411867.22 1435772.65
N2240 411878.28 1435667.88
N2241 411884.57 1435667.64
N2242 411874.40 1435744.10
N2243 411878.22 1435716.54
N2244 411926.60 1435721.48
N2245 411882.56 1435682.58
N2246 411927.77 1435678.67
N2247 411986.32 1435606.16
N2248 411982.22 1435272.05
N2249 412173.21 1435267.80
N2250 411982.25 1435281.35
N2251 412177.25 1435277.63
N2252 412042.02 1435215.90
N2253 412043.18 1435271.20
N2254 412045.05 1435280.48
N2255 412179.03 1435325.07
N2256 412056.68 1435322.80
N2257 412178.47 1435318.10
N2258 412180.84 1435384.12
N2259 412243.64 1435281.29
N2260 412183.77 1435281.92
N2261 412188.11 1435383.77
N2262 412184.68 1435292.65
N2263 412241.94 1435291.58
N2264 411990.74 1435390.59
N2265 412377.32 1435368.79
N2266 411990.34 1435402.53
N2267 412393.95 1435377.58
N2268 411980.12 1435395.60
N2269 411983.16 1435499.44
N2270 412095.37 1435516.78
N2271 412094.34 1435399.11
N2272 412153.99 1435397.26
N2273 412163.27 1435519.22
N2274 412105.25 1435520.29
N2275 412197.98 1435521.54
N2276 411996.53 1435609.11
N2277 412267.54 1435600.51
N2278 412161.21 1435520.33
N2279 412164.72 1435668.96
N2280 412255.23 1435447.15
N2281 412295.16 1435929.89
N2282 412299.50 1435863.07
N2283 412303.15 1435918.91
N2284 412182.86 1435951.15
N2285 412461.96 1435892.75
N2286 412460.08 1435884.13
N2287 412305.23 1435925.54
N2288 412367.17 1435381.21
N2289 412287.79 1435693.01
N2290 412410.31 1435680.13
N2291 412290.08 1435868.52
N2292 412156.09 1435818.63
N2293 412285.44 1435808.04
N2294 412116.90 1435806.92
N2295 412284.54 1435798.53
N2296 412152.03 1435770.09
N2297 412282.69 1435760.71
N2298 412162.63 1435762.75
N2299 412281.36 1435752.20
N2300 412029.68 1435802.77
N2301 411990.87 1435705.02
N2302 412278.42 1435715.27
N2303 411993.23 1435698.37
N2304 412061.15 1435703.80
N2305 412054.67 1435610.25
N2306 412121.51 1435654.94
N2307 412156.00 1435723.51
N2308 412060.81 1435734.99
N2309 412061.82 1435711.20
N2310 411970.92 1435674.78
N2311 411979.71 1435674.75
N2312 412421.40 1435894.21
N2313 412401.76 1435823.71
N2314 412351.99 1435792.01
N2315 412440.66 1435812.30
N2316 412396.10 1435817.42
N2317 412438.80 1435807.22
N2318 412346.65 1435853.41
N2319 412400.08 1435839.86
N2320 412396.45 1435825.16
N2321 412414.79 1435895.89
N2322 412417.53 1435631.22
N2323 412444.30 1435627.04
N2324 412390.65 1435467.07
N2325 412411.80 1435466.12
N2326 412041.94 1435223.64
N2327 412173.92 1435219.24
N2328 412049.42 1435223.62
N2329 412040.72 1435146.89
N2330 411425.56 1435258.90
N2331 411629.07 1435982.66
N2332 411981.36 1435784.45
N2333 411959.97 1435776.78
N2334 411988.31 1435786.64
N2335 413624.62 1435926.59
N2336 413528.51 1435957.08
N2337 413529.85 1435934.85
N2338 413621.22 1435915.98
N2339 413061.56 1435838.88
N2340 413059.14 1435828.60
N2341 413071.06 1435825.47
N2342 412976.34 1435847.77
N2343 412973.60 1435841.26
N2344 413072.88 1435819.49
N2345 412961.94 1435788.54
N2346 413151.07 1435746.25
N2347 413154.28 1435766.92
N2348 413024.43 1435551.89
N2349 413142.57 1435700.82
N2350 413143.45 1435704.14
N2351 412955.89 1435622.00
N2352 413150.07 1435737.96
N2353 412962.24 1435781.24
N2354 413009.17 1435770.58
N2355 412942.72 1435676.57
N2356 412943.68 1435671.70
N2357 413013.40 1435769.58
N2358 413009.33 1435718.60
N2359 413028.42 1435716.44
N2360 412600.91 1435795.10
N2361 412547.39 1435608.36
N2362 412761.26 1435742.61
N2363 412731.26 1435311.27
N2364 413043.05 1435645.61
N2365 413082.82 1435597.82
N2366 413044.04 1435650.26
N2367 413087.48 1435597.14
N2368 413160.78 1435764.58
N2369 413259.08 1435743.37
N2370 413214.74 1435540.12
N2371 413160.51 1435747.44
N2372 413258.63 1435736.40
N2373 413266.03 1435744.45
N2374 413631.90 1435654.61
N2375 413531.23 1435681.80
N2376 413450.51 1435741.99
N2377 413462.49 1435794.82
N2378 413638.78 1435773.15
N2379 413152.12 1435700.24
N2380 413203.93 1435656.39
N2381 413201.31 1435650.54
N2382 413137.45 1435623.75
N2383 413136.79 1435619.88
N2384 413245.34 1435648.74
N2385 413205.11 1435651.63
N2386 413243.81 1435645.20
N2387 413363.39 1435733.53
N2388 413358.55 1435711.31
N2389 413354.86 1435711.77
N2390 413358.62 1435735.42
N2391 413331.94 1435528.25
N2392 413361.46 1435705.00
N2393 413514.63 1435680.85
N2394 413353.51 1435660.79
N2395 413397.96 1435654.56
N2396 413325.65 1435528.71
N2397 413345.99 1435650.86
N2398 413284.96 1435658.68
N2399 413340.25 1435616.37
N2400 413249.18 1435630.59
N2401 413333.94 1435576.13
N2402 413235.82 1435588.94
N2403 413119.38 1435534.67
N2404 413125.99 1435564.95
N2405 413362.52 1435526.94
N2406 413263.52 1435531.56
N2407 413264.79 1435556.88
N2408 413339.90 1435574.56
N2409 413375.56 1435566.60
N2410 413340.65 1435570.91
N2411 413346.53 1435615.02
N2412 413409.31 1435608.30
N2413 413347.53 1435621.99
N2414 413411.50 1435615.15
N2415 413390.42 1435497.76
N2416 413350.56 1435204.47
N2417 413123.58 1435558.10
N2418 413345.69 1435519.47
N2419 413339.25 1435437.76
N2420 413254.88 1435441.01
N2421 413251.51 1435437.04
N2422 413339.02 1435434.33
N2423 413246.19 1435402.55
N2424 413163.26 1435413.65
N2425 413142.47 1435287.52
N2426 413184.26 1435541.32
N2427 413143.93 1435338.83
N2428 412981.68 1435375.84
N2429 412971.48 1435371.56
N2430 413142.50 1435331.76
N2431 413149.11 1435331.19
N2432 413264.86 1435302.95
N2433 413150.00 1435337.82
N2434 413267.37 1435309.03
N2435 413233.45 1435315.22
N2436 413239.07 1435346.17
N2437 413143.46 1435292.72
N2438 413211.94 1435272.59
N2439 413286.26 1435349.00
N2440 413267.70 1435310.35
N2441 413251.24 1435213.74
N2442 413470.52 1435274.11
N2443 413822.77 1435230.98
N2444 413294.26 1435201.44
N2445 413183.77 1435176.68
N2446 413521.56 1435677.07
N2447 413508.52 1435600.36
N2448 413594.04 1435583.50
N2449 413601.42 1435654.37
N2450 413554.86 1435262.34
N2451 413581.09 1435464.54
N2452 413399.19 1435493.64
N2453 413398.52 1435489.00
N2454 413580.20 1435456.80
N2455 413517.14 1435475.91
N2456 413535.40 1435593.53
N2457 413510.09 1435478.03
N2458 413528.36 1435595.43
N2459 413526.71 1435588.02
N2460 413476.63 1435598.14
N2461 413418.33 1435614.02
N2462 413396.81 1435495.64
N2463 413350.70 1435527.08
N2464 413338.21 1435382.46
N2465 413334.84 1435378.71
N2466 413302.74 1435207.06
N2467 413272.67 1435303.59
N2468 413256.99 1435213.39
N2469 413293.57 1435155.88
N2470 413403.67 1435192.69
N2471 413395.20 1435154.01
N2472 413330.99 1435155.32
N2473 413456.88 1435145.97
N2474 413439.74 1435040.84
N2475 413583.96 1434993.83
N2476 413385.05 1435447.01
N2477 413511.13 1435393.31
N2478 413390.92 1435415.48
N2479 413570.96 1435381.51
N2480 413569.96 1435374.22
N2481 413389.92 1435408.40
N2482 413520.95 1435550.22
N2483 413497.75 1435554.72
N2484 413533.97 1435587.01
N2485 413593.48 1435576.42
N2486 413603.71 1435622.73
N2487 413561.69 1435260.99
N2488 413577.01 1435373.20
N2489 413702.64 1435348.70
N2490 413578.44 1435380.72
N2491 413706.68 1435394.03
N2492 413357.17 1435203.90
N2493 413372.76 1435298.19
N2494 413408.13 1435197.33
N2495 413474.19 1435303.07
N2496 413378.61 1435328.70
N2497 413453.75 1435357.77
N2498 413453.53 1435357.00
N2499 413394.13 1435367.47
N2500 413563.64 1435330.44
N2501 413489.08 1435347.26
N2502 413523.52 1435331.78
N2503 413512.58 1435267.56
N2504 413509.22 1435268.57
N2505 413519.51 1435334.89
N2506 413569.48 1435323.23
N2507 413696.10 1435303.48
N2508 413608.75 1435326.54
N2509 413570.69 1435328.32
N2510 413606.13 1435320.57
N2511 413601.49 1435258.32
N2512 413758.03 1435444.52
N2513 413686.58 1434930.25
N2514 413752.10 1435385.48
N2515 413611.08 1435412.58
N2516 413611.43 1435419.54
N2517 413753.10 1435392.67
N2518 413736.44 1435231.80
N2519 413479.27 1435264.23
N2520 413460.18 1435194.07
N2521 413462.12 1435189.30
N2522 413444.19 1435039.28
N2523 413465.96 1435030.36
N2524 413504.99 1435165.50
N2525 413576.15 1434995.18
N2526 413583.22 1435036.52
N2527 413700.30 1435016.80
N2528 413590.59 1435034.29
N2529 413489.94 1435069.11
N2530 413472.68 1435027.80
N2531 413700.75 1435022.55
N2532 413590.50 1435038.82
N2533 413700.87 1435061.04
N2534 413588.99 1435077.32
N2535 413703.18 1435070.43
N2536 413570.26 1435086.77
N2537 413577.36 1435139.73
N2538 413609.50 1435081.45
N2539 413625.60 1435234.36
N2540 413631.78 1435234.12
N2541 413622.76 1435125.21
N2542 413716.22 1435114.19
N2543 413616.44 1435080.22
N2544 413622.53 1435118.46
N2545 413714.90 1435107.67
N2546 413755.17 1435324.64
N2547 413703.39 1434929.75
N2548 413717.91 1435065.63
N2549 413845.40 1435043.67
N2550 413836.70 1435003.66
N2551 413848.94 1435066.44
N2552 414038.21 1435033.34
N2553 414010.76 1434893.29
N2554 413801.07 1434983.53
N2555 414004.15 1434858.59
N2556 413796.71 1434942.29
N2557 413777.01 1434747.81
N2558 413660.61 1434845.72
N2559 413619.69 1434801.61
N2560 413615.25 1434769.33
N2561 413638.77 1434764.39
N2562 413482.79 1434793.97
N2563 413498.16 1434888.92
N2564 413622.60 1435974.92
N2565 413034.47 1435605.72
N2566 413120.65 1435590.96
N2567 413033.58 1435599.41
N2568 413500.72 1435602.04
N2569 413214.04 1435697.61
N2570 413147.98 1435661.87
N2571 413147.78 1435666.08
N2572 413427.48 1435696.39
N2573 413341.23 1435480.55
N2574 413258.81 1435484.13
N2575 413224.09 1435480.59
N2576 413340.78 1435475.36
N2577 413329.85 1435378.29
N2578 413156.10 1435413.78
N2579 413214.17 1435219.83
N2580 413451.39 1435192.21
N2581 413377.44 1435370.39
N2582 413203.84 1435213.89
N2583 413397.38 1435157.54
N2584 413694.54 1434979.00
N2585 413494.70 1435341.94
N2586 413562.65 1435325.13
N2587 413493.76 1435075.40
N2588 413462.61 1435553.83
N2589 410980.51 1435752.05
N2590 411189.55 1435730.91
N2591 411234.83 1435713.74
N2592 411230.73 1435515.67
N2593 410988.18 1435741.29
N2594 411333.09 1435711.32
N2595 411297.49 1435567.77
N2596 411391.60 1435559.84
N2597 411022.05 1435482.28
N2598 411231.20 1435766.50
N2599 411287.55 1435513.50
N2600 411382.86 1435506.67
N2601 411293.82 1435709.46
N2602 411322.90 1435476.33
N2603 411068.30 1435025.14
N2604 410916.32 1435217.29
N2605 411061.68 1435024.16
N2606 411038.73 1435071.57
N2607 411009.00 1435135.15
N2608 411040.97 1435159.16
N2609 411036.22 1435168.35
N2610 410889.73 1435279.31
N2611 411052.37 1435163.10
N2612 410904.38 1435283.25
N2613 410868.23 1435239.57
N2614 410707.82 1435240.42
N2615 410725.48 1435200.10
N2616 410849.00 1435196.50
N2617 410740.95 1435153.27
N2618 410840.84 1435153.61
N2619 410742.34 1435149.06
N2620 410840.07 1435149.08
N2621 410886.31 1434958.37
N2622 410762.24 1435097.90
N2623 410835.95 1435083.29
N2624 410848.97 1435153.81
N2625 410981.76 1435162.67
N2626 410847.44 1435148.72
N2627 410896.26 1434951.70
N2628 410841.22 1435102.73
N2629 411014.14 1435114.90
N2630 410841.78 1435108.82
N2631 411009.28 1435120.44
N2632 410825.95 1434942.75
N2633 411131.39 1434979.59
N2634 410850.97 1434897.77
N2635 411142.09 1434935.65
N2636 410920.40 1434869.01
N2637 410943.81 1434796.60
N2638 410948.25 1434793.82
N2639 410933.97 1434838.55
N2640 410986.21 1434793.15
N2641 411194.87 1434784.96
N2642 411023.62 1434791.15
N2643 411021.32 1434919.12
N2644 411039.78 1434790.21
N2645 411029.89 1434919.86
N2646 411075.57 1434787.99
N2647 411070.47 1434924.05
N2648 411081.96 1434787.42
N2649 411076.11 1434924.69
N2650 411149.96 1434784.22
N2651 411122.03 1434867.48
N2652 411155.92 1434783.09
N2653 411106.06 1434928.69
N2654 411039.76 1434784.35
N2655 411197.66 1434777.87
N2656 411183.11 1434839.41
N2657 411297.54 1434569.74
N2658 410925.09 1434742.25
N2659 411213.67 1434730.26
N2660 411157.17 1434733.87
N2661 411183.83 1434625.73
N2662 411056.38 1434588.98
N2663 411018.04 1434741.18
N2664 411031.72 1434578.00
N2665 411182.95 1434619.32
N2666 411065.92 1434519.61
N2667 410681.43 1435330.31
N2668 411009.49 1434544.01
N2669 411040.60 1434538.82
N2670 410940.77 1434558.61
N2671 411047.40 1434527.30
N2672 410932.25 1434506.87
N2673 411084.30 1434468.56
N2674 411058.80 1434530.91
N2675 411186.20 1434584.58
N2676 411174.78 1434372.71
N2677 411094.86 1434546.50
N2678 411194.54 1434583.67
N2679 411241.99 1434599.44
N2680 411216.53 1434539.58
N2681 411310.47 1434576.55
N2682 411327.67 1434563.78
N2683 411344.27 1434565.38
N2684 411225.56 1434514.56
N2685 411286.25 1434531.84
N2686 411287.20 1434523.76
N2687 411229.00 1434504.93
N2688 411259.64 1434418.78
N2689 411200.63 1434586.42
N2690 411237.60 1434480.12
N2691 411293.08 1434496.65
N2692 411306.64 1434497.93
N2693 411239.00 1434476.25
N2694 411133.63 1434360.35
N2695 411384.08 1434498.90
N2696 411193.90 1434315.03
N2697 411022.56 1434325.54
N2698 411120.18 1434360.61
N2699 411126.57 1434154.00
N2700 411049.04 1434331.42
N2701 411080.75 1434342.93
N2702 411145.18 1434173.40
N2703 411154.49 1434303.99
N2704 411286.78 1434327.23
N2705 411258.29 1434403.63
N2706 411301.02 1434302.96
N2707 411278.67 1434367.74
N2708 411362.14 1434419.56
N2709 411401.51 1434352.30
N2710 411291.45 1434327.66
N2711 411384.15 1434385.43
N2712 411305.76 1434290.89
N2713 411420.20 1434362.20
N2714 411280.81 1434357.11
N2715 411306.07 1434285.70
N2716 411315.73 1434256.47
N2717 411185.78 1434218.95
N2718 411396.84 1434281.42
N2719 411245.70 1434232.25
N2720 411304.31 1434110.18
N2721 411334.72 1434257.18
N2722 411298.67 1434247.01
N2723 411425.30 1434396.91
N2724 411431.37 1434363.49
N2725 411452.20 1434363.42
N2726 411221.89 1434079.37
N2727 411301.11 1434092.61
N2728 411322.31 1434039.34
N2729 411385.32 1434037.37
N2730 411219.63 1434086.68
N2731 411272.52 1433938.31
N2732 411269.62 1433979.24
N2733 411347.04 1433972.13
N2734 411360.81 1434040.33
N2735 411106.33 1434135.26
N2736 411180.43 1434208.02
N2737 411392.15 1434274.25
N2738 411021.12 1434317.58
N2739 411120.92 1434355.52
N2740 410944.64 1434616.99
N2741 411005.11 1434598.88
N2742 411287.62 1433876.66
N2743 411229.94 1434087.97
N2744 411171.63 1435386.35
N2745 411200.47 1435383.05
N2746 411163.46 1435374.43
N2747 411040.59 1435514.51
N2748 410980.10 1435154.05
N2749 411112.80 1435033.07
N2750 410878.09 1435102.17
N2751 410868.00 1434864.20
N2752 411292.75 1434599.39
N2753 411317.28 1434569.23
N2754 411339.30 1434570.71
N2755 411228.10 1434392.56
N2756 411221.74 1434508.60
N2757 411395.14 1434089.32
N2758 411378.44 1434092.14
N2759 411437.78 1434400.18
N2760 411344.33 1433906.45
N2761 411350.42 1433945.80
N2762 411367.23 1433944.20
N2763 412252.93 1434515.60
N2764 412361.54 1434836.87
N2765 412276.70 1434694.13
N2766 412318.77 1434687.59
N2767 412277.80 1434559.31
N2768 412202.11 1434601.47
N2769 412268.44 1434515.32
N2770 412368.58 1434834.52
N2771 412142.65 1434866.10
N2772 412545.02 1434790.50
N2773 412255.73 1434817.85
N2774 412350.57 1434798.97
N2775 412325.48 1434682.70
N2776 412406.96 1434657.34
N2777 412443.14 1434609.00
N2778 412372.09 1434675.36
N2779 412384.47 1434715.14
N2780 412403.08 1434663.76
N2781 412440.87 1434816.27
N2782 412439.58 1434751.79
N2783 412445.64 1434815.37
N2784 412395.06 1434771.29
N2785 412409.44 1434824.77
N2786 412209.56 1434862.45
N2787 412203.63 1434772.67
N2788 412250.16 1434634.94
N2789 412271.52 1434769.25
N2790 412513.94 1434805.64
N2791 412304.44 1434855.41
N2792 412343.70 1435059.22
N2793 412304.03 1434897.55
N2794 412343.43 1435111.76
N2795 412151.08 1434924.35
N2796 412148.04 1434889.08
N2797 412168.77 1435134.32
N2798 412164.45 1435069.97
N2799 412204.89 1435066.19
N2800 412208.37 1435103.45
N2801 412161.18 1435134.35
N2802 412140.95 1434876.61
N2803 412131.75 1435053.48
N2804 412155.49 1435050.97
N2805 412129.24 1435049.29
N2806 412155.15 1435045.00
N2807 412160.31 1435031.16
N2808 412201.74 1435029.92
N2809 412160.76 1435036.25
N2810 412136.35 1435102.90
N2811 412159.55 1435099.51
N2812 412160.00 1435104.71
N2813 412335.46 1435061.46
N2814 412237.43 1435065.75
N2815 412229.88 1435012.47
N2816 412271.25 1434992.65
N2817 412285.69 1435066.38
N2818 412157.07 1435001.53
N2819 412195.88 1434995.77
N2820 412217.09 1434912.20
N2821 412229.17 1434992.45
N2822 412223.07 1434949.45
N2823 412318.13 1434932.01
N2824 412164.47 1435145.17
N2825 412340.87 1435124.04
N2826 412343.05 1435197.25
N2827 412166.87 1435219.60
N2828 412335.68 1435266.73
N2829 412182.62 1435225.52
N2830 412348.71 1435202.65
N2831 412353.66 1435260.48
N2832 412366.92 1435269.73
N2833 412638.87 1435178.29
N2834 412368.84 1435258.88
N2835 412639.61 1435173.53
N2836 412417.86 1435187.28
N2837 412593.14 1435123.47
N2838 412412.33 1435153.90
N2839 412581.57 1435100.17
N2840 412414.37 1435147.48
N2841 412579.39 1435094.86
N2842 412352.77 1435116.93
N2843 412617.28 1435038.34
N2844 412383.70 1435054.23
N2845 412545.39 1435011.14
N2846 412371.53 1435012.24
N2847 412530.51 1434968.50
N2848 412351.43 1434932.79
N2849 412370.02 1434945.00
N2850 412384.54 1435008.88
N2851 412418.96 1435192.14
N2852 412468.14 1435175.18
N2853 412476.80 1435201.92
N2854 412479.83 1435201.46
N2855 412557.84 1435142.16
N2856 412580.61 1435206.56
N2857 412319.01 1434936.32
N2858 412509.67 1434896.23
N2859 412312.16 1434896.97
N2860 412527.51 1434844.08
N2861 412203.77 1434780.63
N2862 412428.86 1434996.02
N2863 412418.87 1434960.44
N2864 412518.58 1434937.01
N2865 412503.60 1434898.13
N2866 412620.88 1435182.22
N2867 412625.32 1435179.77
N2868 412483.59 1434812.70
N2869 412535.05 1434966.60
N2870 412571.35 1434953.88
N2871 412552.22 1435009.35
N2872 412589.06 1434998.95
N2873 412550.58 1435004.82
N2874 412605.40 1434985.07
N2875 412523.34 1434932.35
N2876 412572.10 1434915.39
N2877 412426.65 1435259.14
N2878 412610.30 1435198.84
N2879 412372.82 1435317.71
N2880 412393.40 1434486.51
N2881 412717.23 1435161.23
N2882 412394.68 1434445.80
N2883 412734.89 1435152.66
N2884 412667.81 1435035.53
N2885 412814.03 1435003.99
N2886 412821.13 1435056.83
N2887 412622.27 1434969.20
N2888 412750.71 1434944.35
N2889 412734.75 1434938.43
N2890 412618.45 1434962.14
N2891 412730.06 1434895.20
N2892 412592.92 1434914.11
N2893 412947.56 1434906.46
N2894 412571.31 1434803.80
N2895 412951.74 1434786.89
N2896 412577.72 1434842.27
N2897 412652.10 1434833.85
N2898 412650.68 1434796.03
N2899 412657.36 1434783.18
N2900 412658.45 1434748.23
N2901 412495.22 1434649.09
N2902 412815.66 1434628.95
N2903 412626.32 1434637.73
N2904 412622.43 1434746.02
N2905 412634.99 1434637.59
N2906 412628.61 1434746.11
N2907 412555.19 1434748.44
N2908 412770.75 1434626.77
N2909 412668.38 1434700.53
N2910 412771.54 1434705.29
N2911 412686.29 1434635.44
N2912 412691.57 1434658.76
N2913 412721.64 1434631.57
N2914 412723.26 1434665.96
N2915 412658.70 1434897.86
N2916 412657.66 1434842.24
N2917 412736.94 1434842.87
N2918 412737.25 1434837.56
N2919 412735.05 1434894.97
N2920 412808.83 1434629.41
N2921 412785.37 1434893.37
N2922 412799.45 1434715.82
N2923 412953.30 1434730.37
N2924 412815.30 1434617.00
N2925 412956.09 1434653.50
N2926 412409.34 1434484.13
N2927 412957.64 1434560.82
N2928 412412.07 1434491.42
N2929 412957.68 1434571.32
N2930 412393.80 1434336.87
N2931 412434.60 1434446.56
N2932 412410.97 1434382.71
N2933 412736.80 1434385.00
N2934 412730.08 1434384.80
N2935 412731.62 1434390.99
N2936 412528.64 1434482.65
N2937 412534.51 1434381.66
N2938 412570.53 1434487.71
N2939 412570.84 1434381.87
N2940 412578.91 1434430.07
N2941 412782.85 1434437.28
N2942 412774.22 1434348.83
N2943 412777.27 1434525.88
N2944 412782.91 1434527.08
N2945 412781.91 1434347.59
N2946 412782.35 1434415.71
N2947 412957.33 1434427.33
N2948 412843.81 1434337.44
N2949 412850.58 1434418.81
N2950 412855.24 1434419.02
N2951 412783.35 1434458.84
N2952 412958.75 1434464.37
N2953 412906.28 1434470.73
N2954 412910.44 1434554.44
N2955 412913.92 1434554.98
N2956 412913.33 1434472.59
N2957 412944.18 1435004.46
N2958 412854.14 1434549.31
N2959 412850.21 1434646.76
N2960 412854.55 1434647.07
N2961 412858.37 1434551.29
N2962 412894.14 1434613.55
N2963 412892.74 1434649.94
N2964 412783.76 1434899.46
N2965 412947.15 1434914.21
N2966 412781.98 1434988.72
N2967 412821.41 1434904.87
N2968 412826.80 1434996.54
N2969 412800.45 1434792.13
N2970 412798.89 1434813.03
N2971 412842.97 1434793.21
N2972 412833.76 1434897.75
N2973 412876.15 1434788.90
N2974 412867.93 1434900.19
N2975 412914.97 1434785.02
N2976 412906.23 1434903.05
N2977 413317.44 1434638.87
N2978 413325.25 1434706.31
N2979 412963.50 1434663.76
N2980 413121.12 1434670.68
N2981 413119.03 1434730.19
N2982 412961.95 1434723.60
N2983 413119.49 1434706.07
N2984 413277.84 1434633.25
N2985 413285.66 1434705.55
N2986 412953.88 1434915.40
N2987 413365.92 1434915.44
N2988 413047.45 1434837.58
N2989 413282.43 1434852.88
N2990 413263.23 1434852.05
N2991 413250.33 1434923.32
N2992 413215.83 1434920.22
N2993 413217.24 1434850.87
N2994 413182.30 1434847.99
N2995 413180.57 1434918.78
N2996 413139.99 1434843.37
N2997 413141.30 1434916.14
N2998 413096.81 1434839.97
N2999 413094.45 1434915.73
N3000 413003.30 1434867.36
N3001 413094.20 1434871.50
N3002 413006.53 1434793.36
N3003 413049.17 1434795.66
N3004 413045.60 1434869.33
N3005 412952.27 1434953.89
N3006 413206.75 1434999.10
N3007 412951.21 1434998.58
N3008 412585.92 1435204.56
N3009 413370.47 1434774.08
N3010 413370.41 1434963.75
N3011 412206.31 1434625.90
N3012 412211.37 1434648.22
N3013 412251.05 1434641.35
N3014 412217.81 1434729.71
N3015 412203.66 1434643.27
N3016 412224.74 1434723.50
N3017 412213.78 1434654.52
N3018 412257.90 1434716.31
N3019 412259.12 1434723.72
N3020 412265.11 1434764.95
N3021 412328.36 1434498.88
N3022 412259.00 1434855.88
N3023 412187.38 1435291.86
N3024 412578.76 1434381.96
N3025 413949.28 1435105.72
N3026 414211.02 1435078.70
N3027 414050.86 1435091.36
N3028 414035.88 1435019.08
N3029 414035.82 1435033.67
N3030 414213.12 1435021.73
N3031 414212.86 1435042.42
N3032 414253.10 1435043.29
N3033 414290.05 1435067.28
N3034 414299.65 1435016.60
N3035 414173.40 1435083.57
N3036 414171.23 1435258.65
N3037 413657.89 1435710.27
N3038 413783.88 1435662.65
N3039 413697.94 1435755.27
N3040 413704.73 1435707.36
N3041 413663.55 1435961.53
N3042 413825.88 1435916.67
N3043 413657.47 1435609.96
N3044 413772.25 1435587.04
N3045 413784.95 1435660.10
N3046 414075.46 1435608.77
N3047 413797.81 1435748.76
N3048 414083.62 1435652.54
N3049 414098.22 1435394.58
N3050 414362.82 1435382.15
N3051 414001.10 1435481.48
N3052 414004.22 1435510.89
N3053 414092.92 1435504.42
N3054 413908.81 1435797.30
N3055 414368.26 1435736.59
N3056 413968.82 1435845.77
N3057 414167.27 1435801.58
N3058 414217.28 1435804.30
N3059 414374.95 1435865.53
N3060 414356.38 1435472.19
N3061 414360.76 1435381.71
N3062 414293.56 1435569.71
N3063 414368.93 1435744.00
N3064 414630.75 1435777.92
N3065 414366.00 1435636.73
N3066 414646.75 1435622.37
N3067 414510.23 1435631.42
N3068 414507.17 1435553.23
N3069 414507.81 1435585.86
N3070 414645.88 1435584.33
N3071 414647.65 1435771.67
N3072 414649.01 1435474.83
N3073 414822.03 1435660.32
N3074 414929.96 1435628.35
N3075 414452.22 1434934.62
N3076 414448.87 1434972.45
N3077 414454.52 1434977.96
N3078 414435.44 1435295.43
N3079 414673.98 1435132.34
N3080 414712.54 1435116.08
N3081 414375.75 1434968.47
N3082 414385.98 1435294.15
N3083 414269.33 1435382.55
N3084 414269.56 1435281.90
N3085 414560.86 1435308.43
N3086 414561.20 1435313.41
N3087 415032.13 1435347.46
N3088 414982.18 1435222.97
N3089 414970.72 1435342.67
N3090 414511.49 1435475.91
N3091 414581.66 1435406.24
N3092 414581.67 1435410.00
N3093 414582.64 1435371.18
N3094 414673.77 1435379.64
N3095 414676.75 1435326.21
N3096 414648.49 1435551.47
N3097 414647.85 1435555.68
N3098 414873.03 1435385.77
N3099 413775.78 1436055.85
N3100 413920.72 1436035.93
N3101 413919.50 1436026.97
N3102 413943.52 1436286.80
N3103 413986.29 1436405.23
N3104 413968.89 1436353.19
N3105 414284.34 1436234.98
N3106 414290.74 1436306.40
N3107 414318.08 1436483.83
N3108 414143.04 1436625.60
N3109 414326.00 1436448.85
N3110 414001.90 1436924.43
N3111 413753.16 1436001.95
N3112 414001.35 1436921.56
N3113 414227.37 1436887.23
N3114 414367.60 1436854.06
N3115 414262.28 1436117.15
N3116 414281.69 1436219.73
N3117 414870.07 1436044.49
N3118 414341.57 1436571.90
N3119 414569.61 1436138.76
N3120 414477.62 1436309.48
N3121 414604.63 1436276.46
N3122 414613.02 1436641.40
N3123 414580.19 1436510.22
N3124 414824.02 1436553.49
N3125 414363.56 1436809.73
N3126 414174.36 1436825.24
N3127 414181.08 1436894.79
N3128 414067.62 1435564.99
N3129 414091.54 1435443.15
N3130 414095.83 1435743.08
N3131 414179.88 1435389.02
N3132 413811.31 1435277.58
N3133 413946.76 1435099.31
N3134 414653.47 1435234.49
N3135 414590.46 1435270.40
N3136 414740.25 1435238.75
N3137 414582.00 1435375.72
N3138 414441.66 1435131.07
N3139 414813.55 1435161.55
N3140 414448.25 1435053.63
N3141 414930.68 1435087.53
N3142 414507.83 1434852.94
N3143 414356.24 1434833.28
N3144 414350.69 1434826.77
N3145 414983.27 1434977.22
N3146 414227.85 1436866.99
N3147 414015.58 1436686.50
N3148 414133.60 1436553.74
N3149 415257.25 1435935.80
N3150 415394.33 1434373.43
N3151 415743.92 1435836.66
N3152 415665.76 1435849.28
N3153 415747.68 1435897.03
N3154 415686.25 1435741.50
N3155 415752.94 1435843.93
N3156 415199.84 1435607.73
N3157 415592.07 1435585.62
N3158 415255.48 1435606.89
N3159 415252.79 1435686.20
N3160 415202.62 1435522.78
N3161 415684.87 1435501.07
N3162 415394.86 1435538.78
N3163 415397.78 1435464.45
N3164 415449.82 1435458.87
N3165 415352.76 1435462.38
N3166 415275.54 1435039.47
N3167 415318.51 1435045.98
N3168 415307.24 1435084.61
N3169 415326.56 1435018.41
N3170 415297.33 1434363.22
N3171 415298.78 1434304.60
N3172 415207.77 1434301.23
N3173 415196.16 1434052.53
N3174 415405.39 1434302.83
N3175 414884.62 1434536.24
N3176 415242.33 1434536.36
N3177 414894.02 1434807.28
N3178 414982.68 1434822.05
N3179 414882.14 1434469.89
N3180 414737.36 1434475.54
N3181 415072.70 1434854.40
N3182 415091.46 1434535.27
N3183 415082.87 1434707.72
N3184 415205.12 1434711.55
N3185 415074.66 1434821.44
N3186 414990.06 1434822.69
N3187 415018.45 1434530.30
N3188 414959.81 1433872.87
N3189 414980.46 1434027.31
N3190 414999.39 1433833.82
N3191 415007.60 1434177.53
N3192 414875.35 1434201.72
N3193 415011.04 1434238.90
N3194 414873.52 1434241.76
N3195 415015.11 1434293.30
N3196 414879.12 1434298.59
N3197 414887.57 1434579.14
N3198 414782.29 1434589.86
N3199 414907.25 1434700.74
N3200 414901.83 1434700.42
N3201 415088.91 1434590.47
N3202 415302.42 1434608.40
N3203 414238.77 1434830.54
N3204 414244.32 1434731.43
N3205 414328.12 1434788.68
N3206 414245.04 1434787.72
N3207 414366.37 1434706.28
N3208 414353.51 1434511.12
N3209 414358.78 1434706.08
N3210 414336.60 1434408.31
N3211 414372.67 1434743.53
N3212 414574.15 1434765.69
N3213 414373.99 1434713.00
N3214 414559.03 1434856.54
N3215 414597.03 1434764.85
N3216 414605.27 1434655.88
N3217 414639.41 1434683.32
N3218 414587.87 1434184.35
N3219 414608.36 1434359.25
N3220 414718.66 1434356.70
N3221 415025.99 1434338.84
N3222 415123.39 1434337.10
N3223 414642.63 1434779.64
N3224 414630.66 1434871.36
N3225 414357.45 1434838.36
N3226 414529.44 1434722.59
N3227 414603.36 1434671.70
N3228 414525.21 1434758.54
N3229 414641.15 1434651.24
N3230 414774.36 1434584.91
N3231 414878.95 1434418.70
N3232 415377.16 1434470.36
N3233 414882.81 1434475.86
N3234 414755.74 1434421.84
N3235 415020.26 1434414.17
N3236 415017.03 1434352.80
N3237 414654.72 1434125.75
N3238 415243.16 1434026.51
N3239 414867.22 1434099.00
N3240 415221.96 1434048.25
N3241 415085.80 1434071.23
N3242 415101.26 1434335.73
N3243 415410.61 1434552.66
N3244 415254.38 1434363.35
N3245 415401.37 1435539.43
N3246 415447.62 1435944.51
N3247 415405.73 1435832.49
N3248 416947.71 1435198.08
N3249 418932.29 1435269.17
N3250 416865.85 1435205.85
N3251 417310.65 1435172.33
N3252 417908.03 1435206.28
N3253 417915.53 1434917.27
N3254 417149.27 1435282.64
N3255 417361.47 1435265.52
N3256 417349.45 1435197.99
N3257 417376.11 1435338.47
N3258 417227.94 1435368.45
N3259 417022.46 1435347.72
N3260 417548.26 1435491.36
N3261 417543.82 1435203.82
N3262 417938.96 1435723.33
N3263 417950.76 1435205.71
N3264 417613.20 1435591.25
N3265 417716.48 1435748.54
N3266 417777.80 1435725.25
N3267 418691.83 1435745.99
N3268 417682.88 1435754.51
N3269 418893.24 1435748.61
N3270 419076.80 1435246.74
N3271 419192.06 1435421.81
N3272 419171.12 1435347.66
N3273 419024.99 1435556.23
N3274 419047.28 1435463.92
N3275 419127.95 1435457.05
N3276 419080.64 1435485.06
N3277 419192.52 1435470.14
N3278 419270.20 1435885.64
N3279 419182.31 1435427.14
N3280 418986.27 1435704.10
N3281 419154.77 1435579.51
N3282 419079.20 1435585.60
N3283 419082.96 1435612.90
N3284 419134.61 1435618.17
N3285 419006.90 1435638.67
N3286 419073.56 1435623.66
N3287 419063.83 1435671.46
N3288 419103.37 1435619.04
N3289 419113.17 1435669.00
N3290 419145.81 1435666.58
N3291 419035.34 1435647.11
N3292 419054.83 1435672.93
N3293 419247.53 1435698.13
N3294 418994.00 1435715.46
N3295 419156.50 1435835.87
N3296 419044.28 1435846.81
N3297 419051.18 1435906.96
N3298 419047.23 1435854.77
N3299 418944.05 1435916.78
N3300 418918.62 1435935.77
N3301 419304.09 1435903.56
N3302 417760.41 1436115.59
N3303 417664.96 1435781.99
N3304 417959.74 1436365.61
N3305 418677.56 1436353.09
N3306 418677.93 1436366.69
N3307 417950.13 1436380.24
N3308 418609.88 1436681.65
N3309 418077.41 1436694.39
N3310 418061.43 1436717.78
N3311 418677.30 1436708.33
N3312 418593.33 1436699.17
N3313 418596.75 1436678.92
N3314 419087.78 1435702.47
N3315 419093.74 1435700.79
N3316 419680.92 1435922.82
N3317 419366.82 1435956.80
N3318 419375.80 1436021.14
N3319 419554.18 1436161.08
N3320 419467.79 1436177.47
N3321 419440.08 1436012.10
N3322 419327.72 1436195.47
N3323 419936.55 1436036.21
N3324 419773.82 1436131.57
N3325 419745.30 1435983.68
N3326 419897.25 1436057.67
N3327 419910.30 1436145.33
N3328 419535.53 1436164.56
N3329 419572.57 1436703.38
N3330 419320.05 1436616.97
N3331 419528.98 1436706.50
N3332 419315.55 1436709.00
N3333 419310.90 1436786.98
N3334 419582.55 1436779.89
N3335 419594.43 1436875.07
N3336 419502.27 1436883.53
N3337 419542.97 1436782.99
N3338 419553.45 1436878.40
N3339 420888.82 1436728.78
N3340 419923.05 1436841.05
N3341 420249.65 1436821.31
N3342 420865.02 1436751.19
N3343 419376.25 1436065.82
N3344 419363.40 1435899.74
N3345 419475.47 1436655.45
N3346 419523.72 1436651.55
N3347 419121.70 1433652.26
N3348 418897.23 1433670.17
N3349 419104.14 1433656.19
N3350 419111.18 1433727.61
N3351 419019.37 1433969.97
N3352 419002.68 1433973.12
N3353 419010.26 1434006.38
N3354 418939.57 1433867.79
N3355 419056.89 1433854.29
N3356 419037.46 1433812.87
N3357 418930.12 1433825.91
N3358 418920.68 1433787.11
N3359 419038.42 1433770.29
N3360 418910.99 1433737.15
N3361 418954.67 1433727.74
N3362 418951.31 1433913.77
N3363 419036.33 1433907.44
N3364 419032.38 1433894.51
N3365 419091.19 1434085.55
N3366 418984.41 1434068.06
N3367 419077.06 1434040.36
N3368 419050.11 1434391.91
N3369 419136.82 1434372.64
N3370 419096.28 1434157.21
N3371 419012.93 1434178.57
N3372 418996.70 1434115.69
N3373 419208.23 1434051.48
N3374 419040.77 1433794.50
N3375 419225.40 1433765.21
N3376 419115.69 1433784.33
N3377 419125.27 1433835.40
N3378 419016.44 1434228.22
N3379 419233.48 1434267.29
N3380 419100.23 1434211.94
N3381 419233.08 1434278.79
N3382 419199.39 1434367.92
N3383 419137.17 1434343.88
N3384 419024.59 1434271.66
N3385 419214.65 1434319.21
N3386 419250.40 1434266.91
N3387 419283.33 1434290.48
N3388 419165.25 1434226.46
N3389 419162.90 1434238.74
N3390 419153.01 1434234.46
N3391 419134.54 1434073.15
N3392 419141.80 1434071.25
N3393 419175.64 1434184.07
N3394 419164.58 1433776.12
N3395 419190.14 1433911.08
N3396 419181.20 1433820.31
N3397 419389.98 1433779.33
N3398 419048.48 1433944.67
N3399 419472.89 1433870.11
N3400 419105.46 1433884.67
N3401 419072.76 1433791.87
N3402 419084.97 1433886.39
N3403 419100.18 1433934.01
N3404 419149.50 1433922.70
N3405 419236.08 1434005.17
N3406 419169.08 1433981.15
N3407 419214.06 1433968.52
N3408 419226.99 1433605.40
N3409 419356.75 1433581.13
N3410 419248.35 1433601.90
N3411 419303.05 1433688.12
N3412 419235.34 1433678.59
N3413 419282.71 1433669.49
N3414 419431.85 1433706.77
N3415 419522.89 1434019.38
N3416 419471.58 1433865.36
N3417 419750.12 1433793.66
N3418 419621.18 1433838.71
N3419 419630.85 1433917.76
N3420 419745.29 1433887.12
N3421 419742.51 1433826.08
N3422 419624.92 1433855.73
N3423 419815.75 1433835.16
N3424 419627.82 1433885.03
N3425 419536.42 1433819.93
N3426 419551.28 1433895.76
N3427 419507.92 1433906.28
N3428 419332.16 1433961.65
N3429 419471.83 1433951.51
N3430 419517.41 1434146.14
N3431 419365.86 1433916.10
N3432 419371.83 1433954.79
N3433 419505.82 1434226.46
N3434 419340.40 1434261.12
N3435 419355.44 1434321.02
N3436 419327.21 1434384.80
N3437 419389.50 1434248.92
N3438 419401.78 1434294.78
N3439 419069.53 1434541.60
N3440 419484.83 1434355.26
N3441 419266.85 1434403.11
N3442 419304.09 1434528.75
N3443 419311.38 1434388.72
N3444 419349.39 1434517.45
N3445 419365.03 1434375.95
N3446 419378.59 1434413.07
N3447 419485.37 1434394.74
N3448 420172.07 1434140.70
N3449 420125.01 1434331.28
N3450 420103.77 1433773.94
N3451 420308.39 1433756.10
N3452 420295.82 1433761.33
N3453 420290.65 1433736.02
N3454 420192.59 1433771.59
N3455 420168.75 1433591.05
N3456 420264.54 1433557.82
N3457 420190.92 1433754.89
N3458 420294.99 1433735.46
N3459 420188.35 1433729.02
N3460 420272.82 1433720.37
N3461 420278.29 1433738.60
N3462 420186.01 1433709.45
N3463 420289.01 1433692.90
N3464 420183.56 1433685.90
N3465 420286.56 1433671.34
N3466 420179.15 1433662.91
N3467 420282.14 1433642.82
N3468 420191.88 1433636.44
N3469 420279.05 1433624.47
N3470 420170.34 1433615.49
N3471 420237.77 1433565.42
N3472 420258.15 1433524.88
N3473 418394.61 1433523.34
N3474 418929.32 1434995.90
N3475 418425.76 1433531.43
N3476 418967.82 1435031.51
N3477 418264.29 1434239.39
N3478 418565.39 1434171.26
N3479 418435.54 1434201.06
N3480 418552.04 1434129.72
N3481 418395.44 1434210.58
N3482 418429.18 1434361.66
N3483 418416.00 1434306.18
N3484 418596.58 1434264.07
N3485 418226.20 1434306.30
N3486 418587.68 1434226.60
N3487 418274.37 1434460.33
N3488 418386.23 1434434.78
N3489 418256.55 1434410.84
N3490 418677.86 1434314.04
N3491 418552.54 1434116.33
N3492 418648.56 1434199.88
N3493 418328.57 1434447.89
N3494 418340.64 1434497.18
N3495 418543.18 1434399.71
N3496 418628.05 1434380.21
N3497 418449.24 1434468.11
N3498 418433.66 1434372.05
N3499 418440.84 1434414.72
N3500 417978.98 1434625.22
N3501 417914.62 1434902.89
N3502 417997.72 1434618.75
N3503 417939.07 1435139.61
N3504 417963.23 1434764.17
N3505 418143.98 1434781.33
N3506 418410.98 1434515.00
N3507 418491.41 1434828.42
N3508 418815.83 1434762.10
N3509 418275.96 1434776.85
N3510 418459.40 1434713.38
N3511 418332.84 1434684.22
N3512 418354.62 1434748.64
N3513 418476.20 1434602.18
N3514 418473.99 1434771.84
N3515 418527.69 1434812.16
N3516 418596.67 1435105.15
N3517 418819.51 1433687.65
N3518 418902.33 1434150.47
N3519 418882.07 1434158.72
N3520 418926.48 1434139.68
N3521 418427.86 1434095.02
N3522 418609.08 1434051.91
N3523 418556.48 1433905.75
N3524 418513.01 1433915.16
N3525 418955.32 1434395.18
N3526 419021.09 1434964.99
N3527 418838.14 1434749.54
N3528 419000.16 1434704.71
N3529 418246.21 1434400.03
N3530 416559.81 1433633.65
N3531 416832.15 1433627.86
N3532 416754.19 1432988.18
N3533 416699.79 1433077.27
N3534 416753.82 1433081.53
N3535 416693.45 1432986.71
N3536 416754.98 1432996.59
N3537 416871.68 1432993.25
N3538 416817.32 1432987.22
N3539 416869.92 1432986.84
N3540 416818.75 1432994.18
N3541 416815.96 1432896.65
N3542 416774.85 1432896.11
N3543 416906.41 1432893.39
N3544 416793.18 1432860.88
N3545 416822.80 1432862.01
N3546 416815.99 1432761.06
N3547 416823.98 1432894.52
N3548 416898.82 1432820.53
N3549 416861.08 1432894.41
N3550 416855.70 1432946.85
N3551 416925.55 1432944.43
N3552 416876.53 1433021.22
N3553 416936.07 1433018.38
N3554 416751.24 1433089.83
N3555 416951.47 1433087.68
N3556 416899.72 1432757.82
N3557 416966.69 1433209.40
N3558 416794.22 1433276.94
N3559 416895.66 1433212.60
N3560 416896.20 1433176.21
N3561 416884.32 1433121.50
N3562 416955.80 1433120.29
N3563 416830.85 1433088.37
N3564 416844.46 1433211.76
N3565 416777.51 1433166.62
N3566 416869.59 1433165.90
N3567 416767.63 1433129.15
N3568 416835.30 1433123.75
N3569 418264.33 1433262.17
N3570 417948.17 1434258.57
N3571 418055.40 1434280.82
N3572 418064.50 1434239.76
N3573 418013.24 1434182.40
N3574 417933.73 1434252.42
N3575 418094.48 1434109.61
N3576 418051.75 1434147.89
N3577 418075.09 1434192.17
N3578 418274.70 1433286.02
N3579 417447.18 1433164.50
N3580 417542.49 1433229.14
N3581 417677.12 1433199.54
N3582 417621.58 1433197.71
N3583 417626.61 1433212.19
N3584 417582.35 1433208.12
N3585 417586.18 1433219.61
N3586 417584.41 1433208.00
N3587 417588.02 1433219.27
N3588 417640.65 1433191.91
N3589 417646.02 1433208.15
N3590 417615.98 1433248.16
N3591 417688.46 1433253.81
N3592 417526.71 1433247.43
N3593 417677.46 1433205.40
N3594 417705.16 1433328.19
N3595 417531.42 1433300.06
N3596 417594.38 1433351.19
N3597 417600.23 1433350.18
N3598 417563.93 1433323.52
N3599 417575.46 1433225.83
N3600 417591.48 1433251.66
N3601 417966.58 1433111.64
N3602 417745.89 1433164.39
N3603 417777.81 1433429.17
N3604 417705.72 1433442.65
N3605 417816.40 1433421.64
N3606 417853.94 1433717.93
N3607 418160.85 1433664.71
N3608 417976.37 1433670.78
N3609 417981.01 1433736.46
N3610 417982.79 1433677.62
N3611 417989.15 1433737.21
N3612 417830.89 1433516.27
N3613 418079.44 1433460.68
N3614 417913.60 1433426.33
N3615 418063.97 1433400.56
N3616 417912.18 1433421.58
N3617 418042.81 1433399.74
N3618 417909.02 1433382.44
N3619 417919.94 1433516.23
N3620 418060.36 1433354.90
N3621 417915.45 1433465.26
N3622 418072.21 1433438.69
N3623 417769.81 1433293.60
N3624 417887.53 1433265.27
N3625 417874.32 1433202.27
N3626 417886.72 1433249.90
N3627 417893.66 1433248.44
N3628 417875.64 1433207.13
N3629 417929.51 1433194.70
N3630 417747.66 1433173.01
N3631 417969.64 1433120.26
N3632 418258.95 1433277.33
N3633 417816.05 1433156.44
N3634 417840.05 1433276.91
N3635 417926.14 1433521.19
N3636 417938.54 1433644.46
N3637 418007.43 1433500.82
N3638 417962.56 1433514.44
N3639 417971.87 1433616.72
N3640 417935.76 1433619.70
N3641 418001.69 1433613.53
N3642 417991.73 1433509.60
N3643 418085.41 1433461.32
N3644 418235.31 1433427.26
N3645 418067.80 1433561.24
N3646 418174.63 1433555.51
N3647 418187.33 1433708.43
N3648 418035.28 1433749.02
N3649 418197.69 1433653.87
N3650 418214.71 1433650.61
N3651 418359.49 1433604.51
N3652 418283.85 1433628.07
N3653 418359.09 1433874.81
N3654 418122.44 1434064.51
N3655 418289.33 1433941.59
N3656 418312.57 1434173.55
N3657 418304.00 1434136.20
N3658 418355.38 1434124.10
N3659 418198.56 1433726.64
N3660 418296.09 1433881.19
N3661 418197.38 1433731.40
N3662 418260.49 1433837.39
N3663 418177.77 1433812.08
N3664 418223.00 1433776.01
N3665 418179.05 1433806.00
N3666 418221.48 1433773.47
N3667 418200.70 1433718.23
N3668 418289.50 1433670.19
N3669 418201.88 1433713.36
N3670 418288.19 1433665.77
N3671 418292.82 1433655.80
N3672 418369.98 1433633.23
N3673 418291.73 1433652.82
N3674 418369.33 1433630.91
N3675 418300.95 1433687.96
N3676 418377.02 1433664.29
N3677 418377.14 1433668.27
N3678 418311.23 1433719.23
N3679 418382.11 1433700.77
N3680 418382.23 1433703.43
N3681 418323.90 1433749.50
N3682 418384.60 1433734.72
N3683 418323.91 1433752.70
N3684 418384.83 1433737.81
N3685 418333.12 1433783.97
N3686 418387.19 1433765.46
N3687 418387.41 1433768.55
N3688 418343.30 1433815.02
N3689 418385.56 1433802.07
N3690 418385.68 1433805.16
N3691 418298.05 1433699.36
N3692 418231.02 1433737.05
N3693 418241.86 1433735.25
N3694 418299.14 1433702.79
N3695 418250.86 1433769.18
N3696 418310.19 1433732.62
N3697 418254.98 1433769.83
N3698 418247.19 1433811.43
N3699 418320.91 1433765.32
N3700 418247.95 1433812.76
N3701 418321.90 1433768.52
N3702 418288.53 1433818.72
N3703 418331.31 1433797.47
N3704 418331.97 1433799.02
N3705 418282.16 1433866.08
N3706 418339.96 1433823.11
N3707 418287.69 1433863.63
N3708 418349.25 1433848.29
N3709 418308.03 1433883.03
N3710 418124.28 1433697.77
N3711 418168.26 1433786.56
N3712 418087.15 1433721.11
N3713 418133.36 1433831.01
N3714 418057.16 1433738.34
N3715 418094.15 1433850.82
N3716 418100.45 1433927.99
N3717 418098.29 1433894.60
N3718 418146.19 1433879.53
N3719 418158.94 1433825.74
N3720 418098.68 1433879.45
N3721 418094.17 1434185.70
N3722 418262.77 1434130.57
N3723 418092.56 1434192.45
N3724 418247.55 1434117.56
N3725 418082.38 1434236.06
N3726 418080.99 1434242.25
N3727 418255.79 1434118.98
N3728 418387.47 1433860.24
N3729 418392.36 1433902.14
N3730 417537.38 1433223.29
N3731 417441.11 1433166.18
N3732 418192.94 1432668.15
N3733 418625.21 1432601.40
N3734 418213.83 1432691.09
N3735 418549.14 1432629.16
N3736 418495.24 1432630.10
N3737 418479.19 1432558.81
N3738 418489.38 1432556.13
N3739 418486.12 1432589.54
N3740 418189.91 1432818.57
N3741 418429.93 1432738.78
N3742 418220.81 1432774.79
N3743 418231.41 1432804.62
N3744 418148.86 1432839.15
N3745 418432.23 1432746.41
N3746 418185.17 1432827.32
N3747 418266.32 1433053.47
N3748 418271.95 1433052.23
N3749 418192.21 1432825.20
N3750 418308.16 1432787.58
N3751 418345.51 1432910.01
N3752 418351.36 1432906.57
N3753 418312.14 1432777.73
N3754 418222.30 1432913.91
N3755 418334.67 1432874.87
N3756 418302.79 1432878.62
N3757 418220.22 1432907.84
N3758 418207.09 1432869.06
N3759 418321.63 1432831.45
N3760 418320.09 1432825.37
N3761 418205.23 1432863.42
N3762 418340.52 1432872.20
N3763 418456.35 1432831.49
N3764 418338.54 1432865.46
N3765 418454.81 1432824.09
N3766 418203.17 1432973.58
N3767 418467.10 1432872.16
N3768 418303.72 1432936.24
N3769 418334.32 1433016.55
N3770 418338.10 1433008.46
N3771 418311.73 1432933.12
N3772 418245.43 1433071.11
N3773 418626.68 1432955.08
N3774 418408.58 1432668.84
N3775 418499.86 1432985.21
N3776 418516.96 1433083.25
N3777 418507.78 1432983.52
N3778 418528.78 1433082.67
N3779 418305.16 1433056.12
N3780 418334.99 1433168.84
N3781 418347.30 1433040.95
N3782 418379.57 1433169.15
N3783 418367.89 1433034.37
N3784 418401.92 1433170.63
N3785 418388.82 1433032.87
N3786 418421.22 1433166.70
N3787 418445.61 1433162.21
N3788 418398.57 1433062.81
N3789 418424.68 1433017.94
N3790 418479.26 1433209.33
N3791 418312.93 1433190.47
N3792 418533.20 1433146.36
N3793 418635.56 1433060.12
N3794 418526.92 1433075.81
N3795 418533.75 1432631.42
N3796 418544.60 1432631.50
N3797 418418.11 1432665.38
N3798 418473.89 1432856.55
N3799 418556.17 1432842.92
N3800 418474.45 1432863.40
N3801 418453.94 1432788.15
N3802 418562.67 1432765.49
N3803 418539.98 1432759.91
N3804 418451.10 1432779.20
N3805 418489.82 1433295.34
N3806 418736.20 1433238.22
N3807 418612.30 1433264.46
N3808 418624.04 1433312.65
N3809 418748.60 1432585.45
N3810 418780.59 1432767.17
N3811 418819.07 1432760.20
N3812 418792.32 1432587.53
N3813 418862.87 1432752.66
N3814 418837.57 1432593.81
N3815 418896.48 1432746.59
N3816 418870.77 1432595.93
N3817 418872.76 1432611.07
N3818 418905.73 1432609.87
N3819 418879.81 1432646.00
N3820 418929.14 1432637.45
N3821 418696.02 1432780.25
N3822 418947.87 1432850.51
N3823 418756.63 1432771.22
N3824 418777.99 1432881.09
N3825 418740.92 1432887.39
N3826 418820.06 1432873.67
N3827 418799.99 1432763.58
N3828 418842.71 1432755.93
N3829 418864.18 1432865.69
N3830 418886.29 1432748.39
N3831 418906.57 1432857.93
N3832 418941.12 1432803.42
N3833 419257.56 1432743.77
N3834 419046.16 1432780.11
N3835 419062.19 1432886.34
N3836 419009.50 1432894.02
N3837 419095.81 1432883.48
N3838 419107.08 1432769.42
N3839 419139.33 1432927.37
N3840 418800.60 1432970.39
N3841 418878.51 1432906.01
N3842 418814.87 1432918.92
N3843 418830.18 1432996.73
N3844 418825.74 1432963.68
N3845 418887.85 1432949.34
N3846 418881.50 1432928.68
N3847 418820.25 1432941.02
N3848 418939.85 1432852.31
N3849 418921.50 1432956.76
N3850 419324.20 1432905.15
N3851 419473.36 1432874.53
N3852 419309.11 1432864.61
N3853 419469.14 1432838.93
N3854 419303.77 1432819.17
N3855 419389.21 1432806.42
N3856 419402.46 1432887.56
N3857 419440.72 1432838.57
N3858 419440.81 1432721.23
N3859 419404.31 1432778.07
N3860 419436.08 1432773.22
N3861 419467.25 1432712.08
N3862 419549.20 1432954.60
N3863 419237.85 1432492.78
N3864 419283.05 1432741.70
N3865 418791.72 1433159.86
N3866 418932.16 1433114.66
N3867 418880.54 1433080.53
N3868 418890.20 1433122.53
N3869 418788.07 1433137.87
N3870 418763.73 1433011.30
N3871 418769.25 1433043.47
N3872 418843.17 1433026.44
N3873 418774.66 1433076.08
N3874 418841.64 1433059.41
N3875 418780.61 1433106.92
N3876 418821.15 1433097.95
N3877 418852.29 1432991.80
N3878 418870.00 1433074.81
N3879 418880.00 1433006.65
N3880 418895.17 1433039.01
N3881 418884.55 1433007.85
N3882 418910.03 1433004.24
N3883 418928.79 1433075.63
N3884 418940.72 1432999.84
N3885 418950.93 1433079.66
N3886 418946.91 1433039.30
N3887 419004.05 1433034.05
N3888 418959.73 1433010.73
N3889 418964.47 1433036.82
N3890 418885.92 1433104.73
N3891 418991.52 1433089.49
N3892 418985.06 1433065.51
N3893 418992.65 1433104.97
N3894 418991.50 1433079.65
N3895 419091.23 1433060.89
N3896 419128.17 1433080.47
N3897 419095.75 1433085.54
N3898 419089.46 1433048.73
N3899 419017.91 1433060.88
N3900 419121.21 1433036.69
N3901 419097.13 1433038.53
N3902 419237.70 1433073.29
N3903 419134.56 1432965.98
N3904 419148.85 1433031.85
N3905 419172.20 1432965.76
N3906 419182.46 1433026.78
N3907 418790.13 1433506.69
N3908 418540.38 1433559.52
N3909 418554.57 1433516.68
N3910 418565.10 1433554.69
N3911 418581.03 1433512.18
N3912 418590.14 1433549.86
N3913 418605.63 1433505.36
N3914 418615.40 1433544.70
N3915 418640.66 1433505.36
N3916 418644.33 1433536.21
N3917 418790.78 1433542.42
N3918 418794.43 1433565.52
N3919 418554.66 1433621.08
N3920 418787.32 1433619.73
N3921 418566.29 1433665.17
N3922 418539.61 1433555.98
N3923 418782.13 1433664.65
N3924 418694.42 1433639.25
N3925 418694.43 1433680.83
N3926 418822.19 1433342.15
N3927 419345.06 1433251.92
N3928 418834.69 1433316.12
N3929 418824.84 1433245.92
N3930 418830.93 1433291.47
N3931 418873.33 1433284.82
N3932 418801.01 1433222.76
N3933 418863.67 1433211.52
N3934 418823.02 1433219.71
N3935 418888.15 1433161.68
N3936 418856.28 1433167.53
N3937 418887.30 1433354.12
N3938 418909.06 1433265.25
N3939 418925.46 1433345.38
N3940 418914.13 1433293.55
N3941 418975.21 1433258.97
N3942 418948.80 1433280.17
N3943 418974.93 1433276.23
N3944 418981.62 1433301.31
N3945 418988.44 1433331.15
N3946 418867.89 1433244.69
N3947 418980.96 1433223.45
N3948 418939.98 1433230.43
N3949 419142.22 1433176.20
N3950 418946.13 1433143.60
N3951 418956.82 1433203.29
N3952 418957.45 1433119.90
N3953 418990.43 1433198.76
N3954 419025.15 1433127.44
N3955 419035.86 1433192.77
N3956 419062.20 1433112.29
N3957 419076.41 1433186.35
N3958 419127.10 1433086.22
N3959 419159.91 1433292.05
N3960 419084.95 1433212.86
N3961 419093.80 1433309.61
N3962 419051.18 1433236.52
N3963 419071.44 1433230.05
N3964 419072.10 1433233.25
N3965 419098.33 1433227.53
N3966 419093.01 1433260.29
N3967 419080.76 1433263.86
N3968 419020.72 1433208.08
N3969 419045.02 1433320.37
N3970 418994.85 1433262.45
N3971 419028.89 1433256.05
N3972 419205.83 1433192.83
N3973 419217.91 1433281.60
N3974 419236.47 1433210.54
N3975 419245.88 1433276.87
N3976 419229.76 1433103.06
N3977 419264.10 1433274.28
N3978 418838.57 1433416.31
N3979 418870.35 1433565.52
N3980 418834.21 1433485.44
N3981 418944.01 1433458.58
N3982 418853.31 1433485.83
N3983 418873.54 1433357.15
N3984 418897.30 1433470.33
N3985 418999.76 1433382.44
N3986 419084.76 1433519.33
N3987 418873.52 1433571.70
N3988 418965.65 1433550.75
N3989 418874.67 1433594.81
N3990 419040.11 1433606.38
N3991 419023.30 1433534.10
N3992 419035.72 1433589.14
N3993 419028.94 1433532.87
N3994 419051.02 1433627.48
N3995 419080.21 1433521.00
N3996 419106.05 1433642.36
N3997 419114.74 1433644.98
N3998 419135.53 1433523.49
N3999 419160.69 1433632.80
N4000 419208.13 1433608.77
N4001 419182.08 1433491.50
N4002 418861.33 1433523.08
N4003 419094.00 1433450.84
N4004 418992.89 1433443.39
N4005 419027.79 1433323.63
N4006 419063.13 1433316.45
N4007 419046.21 1433429.52
N4008 419125.55 1433411.60
N4009 419181.79 1433465.07
N4010 419329.35 1433406.91
N4011 419181.22 1433346.18
N4012 419222.04 1433433.32
N4013 419211.64 1433399.95
N4014 419303.90 1433382.76
N4015 419015.60 1433422.87
N4016 419018.47 1433440.44
N4017 418837.17 1433493.95
N4018 418854.63 1433492.35
N4019 419872.59 1433423.03
N4020 420054.83 1433392.97
N4021 419334.13 1432814.11
N4022 419820.96 1433384.36
N4023 416906.35 1433487.51
N4024 417144.65 1433414.47
N4025 417144.08 1433405.18
N4026 416905.56 1433478.11
N4027 417007.58 1433423.39
N4028 416964.86 1433285.94
N4029 417096.62 1433276.48
N4030 417082.85 1433387.67
N4031 416969.89 1433334.36
N4032 417069.11 1433325.33
N4033 417005.66 1433361.80
N4034 417058.89 1433355.00
N4035 417068.80 1433402.64
N4036 417155.91 1433515.19
N4037 417239.52 1433473.90
N4038 417313.47 1433358.11
N4039 417220.70 1433383.71
N4040 417313.24 1433353.69
N4041 417345.64 1433343.19
N4042 417250.47 1433508.82
N4043 417212.90 1433348.57
N4044 417236.76 1433421.16
N4045 417248.48 1433460.61
N4046 417333.17 1433417.44
N4047 417515.68 1433258.19
N4048 417470.85 1433284.09
N4049 417495.20 1433336.00
N4050 417506.19 1433274.70
N4051 417543.94 1433313.30
N4052 417432.13 1433246.83
N4053 417508.88 1433270.71
N4054 417256.76 1433182.87
N4055 417273.99 1433249.07
N4056 417180.53 1433188.08
N4057 417189.97 1433263.26
N4058 417273.53 1433167.67
N4059 417073.52 1432987.00
N4060 417214.53 1432916.58
N4061 417175.65 1432900.88
N4062 417209.27 1432896.24
N4063 417205.17 1432870.37
N4064 417232.14 1433000.35
N4065 417218.67 1432922.31
N4066 417259.66 1432916.66
N4067 417290.72 1433075.61
N4068 417418.91 1433070.58
N4069 417264.26 1432933.46
N4070 417402.58 1432939.90
N4071 417331.02 1432768.03
N4072 417306.89 1432932.78
N4073 416898.83 1432750.41
N4074 417516.26 1432758.96
N4075 417197.15 1432726.29
N4076 417220.06 1432841.46
N4077 417145.29 1432721.14
N4078 417122.67 1432846.29
N4079 417099.84 1432720.83
N4080 417116.06 1432777.41
N4081 417153.00 1432508.11
N4082 417269.44 1432486.86
N4083 417195.07 1432500.68
N4084 417179.76 1432714.95
N4085 417163.97 1432620.66
N4086 417199.48 1432633.72
N4087 417277.42 1432470.91
N4088 417306.76 1432744.77
N4089 417365.02 1432821.35
N4090 417633.34 1432847.86
N4091 417414.42 1432764.57
N4092 417420.76 1432816.53
N4093 417538.67 1432783.00
N4094 417547.77 1432814.94
N4095 417688.08 1433126.73
N4096 417663.70 1432991.00
N4097 417954.47 1432979.74
N4098 417664.11 1432983.47
N4099 417884.28 1432974.19
N4100 417656.99 1432958.72
N4101 417886.96 1432964.12
N4102 417656.32 1432950.43
N4103 417939.88 1432961.09
N4104 417787.35 1432952.58
N4105 417788.90 1432815.22
N4106 417789.25 1432860.01
N4107 417920.29 1432866.48
N4108 417789.27 1432868.52
N4109 417918.91 1432875.22
N4110 417789.49 1432907.34
N4111 417928.57 1432913.90
N4112 417641.73 1432897.94
N4113 417777.98 1432900.41
N4114 417628.96 1432723.79
N4115 417642.77 1432810.12
N4116 417688.91 1432712.55
N4117 417702.21 1432810.06
N4118 417461.91 1432759.34
N4119 417492.75 1432697.10
N4120 417499.24 1432109.26
N4121 417760.15 1432010.17
N4122 417567.70 1432076.32
N4123 417758.18 1432005.09
N4124 417580.13 1432242.73
N4125 417786.72 1432080.76
N4126 417575.84 1432112.68
N4127 417773.92 1432046.18
N4128 417506.36 1432275.25
N4129 417826.49 1432178.96
N4130 417741.56 1431961.56
N4131 417858.65 1432270.55
N4132 417871.23 1432306.68
N4133 418079.75 1432795.45
N4134 417928.20 1432751.88
N4135 418038.51 1432713.62
N4136 417908.84 1432696.86
N4137 417910.19 1432714.77
N4138 417923.50 1432666.95
N4139 417949.83 1432658.91
N4140 417883.67 1432587.77
N4141 417893.06 1432644.15
N4142 417772.66 1431950.52
N4143 418101.22 1432756.67
N4144 417793.67 1432009.74
N4145 417946.44 1431951.00
N4146 417839.58 1432129.49
N4147 417855.75 1432022.49
N4148 417906.36 1432045.13
N4149 417974.74 1432096.13
N4150 417992.97 1432135.45
N4151 417986.80 1431807.11
N4152 418047.94 1432051.23
N4153 418154.83 1431885.24
N4154 418133.81 1431745.18
N4155 418293.49 1431710.43
N4156 418211.74 1431723.61
N4157 418232.60 1431847.19
N4158 418172.29 1431772.16
N4159 418291.11 1431751.91
N4160 418176.64 1431814.18
N4161 418279.10 1431798.28
N4162 418178.18 1431857.30
N4163 418275.21 1431840.21
N4164 417881.73 1432224.58
N4165 418007.41 1432173.89
N4166 418072.38 1432357.29
N4167 418195.88 1432303.39
N4168 418118.11 1432196.90
N4169 418196.70 1432179.64
N4170 418085.16 1432205.62
N4171 418025.02 1432226.37
N4172 418112.03 1432451.51
N4173 418194.62 1432648.90
N4174 417942.81 1432155.61
N4175 418147.72 1432085.33
N4176 418217.71 1432056.26
N4177 418043.30 1432279.74
N4178 418106.86 1432171.05
N4179 417605.81 1432635.71
N4180 417740.56 1432646.70
N4181 417498.14 1432574.98
N4182 417495.30 1432641.02
N4183 417434.78 1432571.97
N4184 417599.15 1432585.63
N4185 417867.95 1432590.48
N4186 417917.07 1432582.81
N4187 417981.51 1432732.92
N4188 417828.85 1432719.88
N4189 417919.52 1432716.29
N4190 417967.09 1432698.01
N4191 417617.18 1432811.75
N4192 418066.43 1432765.29
N4193 417510.43 1432695.94
N4194 417607.32 1432668.89
N4195 417598.56 1432713.15
N4196 417929.82 1432823.43
N4197 417984.41 1433125.63
N4198 417642.84 1432905.24
N4199 417788.54 1432915.09
N4200 417925.01 1432920.88
N4201 417737.04 1433103.59
N4202 417714.89 1432988.96
N4203 417849.84 1433030.26
N4204 417722.62 1433033.40
N4205 417898.07 1432981.67
N4206 417607.08 1432807.80
N4207 417618.16 1432850.01
N4208 417235.50 1432493.26
N4209 417264.26 1432459.22
N4210 417336.67 1432843.33
N4211 417398.45 1432900.43
N4212 417395.81 1432817.83
N4213 417261.25 1433159.42
N4214 417234.73 1433032.20
N4215 417155.69 1433043.49
N4216 417293.53 1432856.18
N4217 417406.84 1432986.01
N4218 417528.87 1432989.63
N4219 417629.66 1432924.30
N4220 417549.93 1432849.44
N4221 417018.67 1433360.21
N4222 417022.71 1433405.54
N4223 417066.27 1433392.36
N4224 417369.52 1433311.27
N4225 417344.85 1433221.54
N4226 417119.05 1433195.23
N4227 417092.36 1433195.31
N4228 417152.40 1433359.81
N4229 417123.91 1433188.69
N4230 417091.37 1433187.79
N4231 417177.70 1433187.31
N4232 417402.44 1433221.26
N4233 417146.68 1433368.12
N4234 417462.60 1433352.91
N4235 417431.39 1433292.06
N4236 417387.61 1433303.81
N4237 417415.16 1433376.72
N4238 417165.89 1433587.71
N4239 417130.86 1433372.70
N4240 417135.12 1433383.09
N4241 416954.34 1433284.86
N4242 417146.26 1433445.87
N4243 417229.49 1433422.06
N4244 417324.87 1433396.01
N4245 417158.07 1433549.91
N4246 417350.87 1433459.64
N4247 412185.70 1432264.83
N4248 412508.76 1432205.63
N4249 412460.17 1432173.16
N4250 412529.14 1432166.75
N4251 412426.97 1432171.60
N4252 412510.01 1432120.03
N4253 412395.92 1432266.04
N4254 412391.60 1432408.06
N4255 412351.35 1432335.42
N4256 412483.28 1432414.08
N4257 412489.74 1432262.65
N4258 412482.55 1432457.21
N4259 412528.54 1432458.39
N4260 412574.88 1432361.59
N4261 412525.22 1432504.19
N4262 412650.02 1432111.62
N4263 412651.58 1432159.50
N4264 412767.21 1432158.81
N4265 412775.01 1432466.02
N4266 412610.97 1432455.04
N4267 412917.30 1432526.85
N4268 413367.38 1432538.82
N4269 413011.57 1432528.98
N4270 412999.34 1432640.72
N4271 412924.63 1432442.44
N4272 413127.55 1432433.95
N4273 413124.61 1432396.91
N4274 412992.84 1432403.51
N4275 413343.24 1432381.73
N4276 412996.20 1432365.90
N4277 413065.28 1432398.31
N4278 413023.89 1432306.98
N4279 413028.08 1432364.69
N4280 413329.67 1432307.01
N4281 414050.52 1432220.72
N4282 413745.01 1432203.31
N4283 413321.87 1432241.45
N4284 413620.89 1432263.86
N4285 413615.21 1432216.76
N4286 413619.98 1432216.63
N4287 413612.38 1432142.78
N4288 413655.63 1432135.68
N4289 413296.64 1432184.91
N4290 413598.91 1432068.94
N4291 413246.06 1432104.66
N4292 413425.73 1432085.19
N4293 413420.72 1432007.90
N4294 413753.00 1431983.64
N4295 413992.98 1431958.78
N4296 413560.46 1431705.31
N4297 413924.85 1431679.18
N4298 414217.46 1431975.89
N4299 414216.58 1432009.07
N4300 414160.09 1432155.79
N4301 414042.77 1432170.42
N4302 414070.30 1432372.17
N4303 413475.76 1432440.27
N4304 414058.17 1432273.23
N4305 413578.17 1432375.14
N4306 414063.83 1432315.79
N4307 413463.77 1432385.89
N4308 413457.08 1432363.13
N4309 413536.33 1432452.24
N4310 413537.33 1432599.11
N4311 413379.83 1432600.60
N4312 413541.40 1432513.06
N4313 413542.28 1432551.87
N4314 413376.34 1432558.81
N4315 413383.19 1432668.61
N4316 413429.20 1432672.89
N4317 413401.53 1432671.43
N4318 413414.06 1432757.54
N4319 413446.36 1432715.08
N4320 413255.92 1432726.74
N4321 413249.19 1432794.00
N4322 413254.33 1432737.91
N4323 413188.84 1432675.85
N4324 413287.53 1432672.67
N4325 413363.58 1432676.96
N4326 413367.65 1432727.60
N4327 413368.84 1432727.16
N4328 413375.20 1432783.76
N4329 413314.83 1432730.09
N4330 413352.99 1432793.57
N4331 413305.93 1432729.46
N4332 413313.97 1432733.30
N4333 413409.32 1432838.84
N4334 413405.86 1432808.66
N4335 413513.97 1432795.83
N4336 413490.27 1432710.85
N4337 413577.55 1432767.21
N4338 413510.78 1432782.90
N4339 413942.61 1432647.51
N4340 414048.00 1432668.86
N4341 413499.18 1432748.98
N4342 413541.53 1432485.08
N4343 414118.27 1432417.48
N4344 414156.63 1432508.16
N4345 414105.96 1432470.82
N4346 413542.89 1432540.92
N4347 414164.65 1432508.13
N4348 413544.46 1432590.58
N4349 414226.85 1432523.31
N4350 413546.50 1432655.05
N4351 413539.11 1432648.21
N4352 413538.41 1432598.89
N4353 414009.01 1432581.61
N4354 414015.30 1432616.21
N4355 414055.48 1432700.14
N4356 413666.27 1432764.83
N4357 414054.15 1432692.62
N4358 414066.77 1432740.14
N4359 413860.91 1432778.71
N4360 413851.00 1432732.07
N4361 413863.22 1432823.27
N4362 413538.63 1432879.03
N4363 413828.80 1432884.10
N4364 413709.23 1432906.48
N4365 413701.49 1432859.50
N4366 413718.96 1432963.41
N4367 413856.71 1432894.08
N4368 413903.91 1433074.09
N4369 413867.59 1432937.95
N4370 413569.24 1432988.20
N4371 413558.61 1432883.72
N4372 413567.30 1432992.63
N4373 412987.40 1433018.67
N4374 413156.93 1432946.69
N4375 413165.67 1433037.47
N4376 413174.09 1433128.90
N4377 413020.93 1433126.18
N4378 413093.30 1433031.72
N4379 413002.55 1433110.20
N4380 412979.48 1432948.80
N4381 413087.40 1432948.24
N4382 413081.69 1433029.32
N4383 413126.29 1432653.26
N4384 413264.47 1432998.45
N4385 413265.76 1433029.74
N4386 413282.81 1433034.00
N4387 413290.01 1433117.92
N4388 413334.37 1433118.00
N4389 413150.25 1433136.83
N4390 413155.77 1433270.19
N4391 413225.34 1433040.15
N4392 413241.64 1433120.95
N4393 413357.81 1433017.18
N4394 413369.26 1433104.62
N4395 413431.72 1433202.64
N4396 413420.46 1433208.42
N4397 413283.19 1433225.44
N4398 413278.72 1433184.32
N4399 413288.54 1433271.32
N4400 413282.32 1433225.00
N4401 413196.63 1433223.83
N4402 413193.95 1433269.96
N4403 413039.04 1433194.80
N4404 413180.65 1433283.61
N4405 413096.42 1433367.37
N4406 413430.83 1433264.24
N4407 413575.03 1433174.98
N4408 413221.42 1433277.84
N4409 413232.51 1433391.83
N4410 413194.31 1433279.25
N4411 413204.74 1433389.59
N4412 413162.77 1433392.93
N4413 413198.90 1433603.95
N4414 413325.32 1433518.06
N4415 413265.04 1433527.32
N4416 413458.94 1433442.88
N4417 413987.88 1433358.06
N4418 414056.13 1433224.58
N4419 413701.86 1433290.38
N4420 414092.58 1433086.22
N4421 413682.54 1433180.95
N4422 414082.34 1433038.92
N4423 413588.22 1433195.40
N4424 414238.59 1432811.71
N4425 414036.02 1432862.66
N4426 414349.09 1432835.15
N4427 413981.47 1432936.27
N4428 414213.12 1432818.54
N4429 414227.49 1432868.48
N4430 414037.43 1432862.44
N4431 414051.16 1432916.92
N4432 414066.22 1432980.46
N4433 414067.74 1432981.01
N4434 414095.11 1433097.61
N4435 414001.08 1432997.81
N4436 414367.28 1432895.70
N4437 414252.52 1432930.01
N4438 414270.51 1432995.76
N4439 414594.23 1432905.62
N4440 414617.33 1432974.01
N4441 414373.46 1433034.48
N4442 414351.15 1432977.15
N4443 414394.24 1433090.49
N4444 414372.37 1433033.05
N4445 414110.93 1433162.15
N4446 414420.42 1433104.01
N4447 414645.96 1433043.70
N4448 414547.56 1432791.52
N4449 414687.59 1433143.89
N4450 414668.03 1433095.73
N4451 414429.15 1433156.30
N4452 414439.50 1433206.03
N4453 414458.24 1433303.30
N4454 414203.68 1433341.69
N4455 414223.43 1433379.67
N4456 414217.56 1433340.21
N4457 414191.29 1433299.48
N4458 414446.76 1433237.09
N4459 414436.97 1433194.10
N4460 414129.17 1433274.01
N4461 414124.66 1433217.73
N4462 414426.40 1433143.36
N4463 414941.49 1433240.87
N4464 413985.45 1430929.92
N4465 413905.95 1430794.14
N4466 414346.00 1431591.28
N4467 414049.63 1430988.89
N4468 413921.81 1431013.18
N4469 413678.52 1431123.09
N4470 413839.00 1431102.91
N4471 413747.77 1431276.83
N4472 413926.86 1431731.27
N4473 413940.20 1431729.12
N4474 413938.21 1431788.19
N4475 413954.04 1431786.04
N4476 413945.44 1431844.79
N4477 413967.45 1431843.62
N4478 413968.94 1431903.34
N4479 413980.33 1431902.97
N4480 413980.60 1433317.50
N4481 412415.66 1431988.05
N4482 413364.78 1432954.89
N4483 413382.21 1433012.79
N4484 413315.32 1429552.98
N4485 413314.24 1429589.04
N4486 413482.14 1429544.61
N4487 413505.89 1429542.66
N4488 413896.37 1429700.04
N4489 413891.74 1429745.84
N4490 413578.64 1429807.64
N4491 413590.96 1430004.35
N4492 413581.44 1429940.46
N4493 413518.97 1429945.74
N4494 413393.82 1430514.71
N4495 413489.83 1430516.07
N4496 413847.92 1429539.38
N4497 413861.81 1429609.57
N4498 413876.31 1429703.20
N4499 413631.91 1430055.32
N4500 413615.75 1430057.69
N4501 413588.26 1430145.37
N4502 418625.07 1430742.07
N4503 418464.05 1431171.21
N4504 418406.59 1431183.33
N4505 418922.29 1431039.48
N4506 418508.51 1431055.73
N4507 418660.34 1431044.78
N4508 418662.20 1431013.48
N4509 418522.30 1431024.95
N4510 418679.13 1430977.82
N4511 418538.03 1430988.29
N4512 418671.13 1430951.52
N4513 418549.67 1430962.38
N4514 418563.57 1430929.05
N4515 418663.24 1430922.45
N4516 418676.26 1430887.58
N4517 418579.41 1430894.61
N4518 418680.07 1430856.16
N4519 418593.63 1430861.28
N4520 418620.78 1430796.39
N4521 418682.60 1430794.33
N4522 418628.30 1430770.60
N4523 418682.41 1430766.13
N4524 418541.22 1431149.75
N4525 418586.00 1431438.72
N4526 418741.60 1431679.36
N4527 418768.48 1431817.41
N4528 418841.67 1431808.57
N4529 418848.45 1431900.90
N4530 418781.71 1431891.36
N4531 418850.02 1431882.65
N4532 418791.74 1431870.32
N4533 418848.01 1431861.86
N4534 418807.26 1431912.19
N4535 418889.89 1431901.66
N4536 418673.41 1431949.30
N4537 418840.00 1431904.91
N4538 418866.46 1431902.40
N4539 418890.19 1431855.99
N4540 418807.68 1431833.11
N4541 418844.44 1431830.35
N4542 418827.07 1431787.16
N4543 418766.78 1431795.41
N4544 418608.77 1431840.66
N4545 418689.89 1431836.78
N4546 418618.12 1431812.10
N4547 418686.44 1431808.03
N4548 418669.73 1431693.50
N4549 418578.12 1432005.87
N4550 418746.40 1431983.70
N4551 418785.40 1432336.50
N4552 419203.71 1432314.93
N4553 418794.15 1432360.47
N4554 418983.77 1432330.72
N4555 418624.17 1432138.34
N4556 418760.91 1432123.23
N4557 418748.06 1432511.13
N4558 418714.26 1432562.99
N4559 419829.39 1432176.86
N4560 419968.64 1432316.69
N4561 419927.95 1432162.75
N4562 420039.48 1432355.86
N4563 418515.33 1431679.80
N4564 418529.44 1431717.92
N4565 418699.60 1431116.00
N4566 418654.38 1431491.05
N4567 418693.68 1430760.56
N4568 418607.20 1430827.84
N4569 418657.20 1430712.78
N4570 418621.49 1430742.08
N4571 418829.56 1432416.11
N4572 418702.51 1432515.13
N4573 418600.23 1431482.36
N4574 418491.26 1431498.83
N4575 418532.23 1431707.29
N4576 418520.42 1431638.42
N4577 418681.63 1431610.41
N4578 419145.64 1431635.38
N4579 418529.54 1431716.26
N4580 418889.99 1431677.71
N4581 418944.14 1431870.98
N4582 418988.64 1431655.74
N4583 419002.06 1431759.11
N4584 419059.91 1431733.95
N4585 418999.85 1431743.85
N4586 418989.30 1431698.76
N4587 419097.08 1431683.63
N4588 419277.86 1431666.73
N4589 419180.59 1431679.29
N4590 419173.13 1431648.13
N4591 419260.31 1431637.26
N4592 419265.73 1431601.63
N4593 419163.59 1431615.09
N4594 418935.92 1431843.02
N4595 419128.87 1431795.68
N4596 419169.59 1431736.28
N4597 418833.65 1431590.39
N4598 418824.75 1431513.89
N4599 418507.42 1431570.67
N4600 418799.12 1431501.24
N4601 416770.94 1430980.93
N4602 416798.10 1431174.83
N4603 416915.52 1431155.46
N4604 416999.81 1431700.55
N4605 416958.78 1431617.95
N4606 417034.02 1431605.89
N4607 416896.84 1431001.01
N4608 416988.31 1430972.76
N4609 417045.36 1431769.10
N4610 417045.71 1431996.26
N4611 417294.48 1431062.75
N4612 417760.68 1431934.74
N4613 417313.19 1431045.44
N4614 417486.07 1431218.79
N4615 417873.02 1431150.73
N4616 418219.58 1430150.81
N4617 418460.62 1430115.15
N4618 418554.43 1430292.27
N4619 418241.76 1430353.79
N4620 418519.51 1430296.91
N4621 418560.74 1430484.02
N4622 418536.13 1430488.41
N4623 418625.68 1430470.23
N4624 418646.99 1430633.52
N4625 418293.23 1430628.80
N4626 418635.49 1430560.11
N4627 417584.25 1431439.35
N4628 418376.76 1431293.01
N4629 418203.87 1431484.52
N4630 418174.47 1431335.97
N4631 417629.12 1431465.21
N4632 417742.61 1431437.89
N4633 417735.25 1431405.95
N4634 417749.43 1431468.72
N4635 417682.54 1431481.31
N4636 417703.57 1431476.60
N4637 417736.42 1431581.13
N4638 417705.46 1431492.74
N4639 417758.42 1431501.77
N4640 417655.71 1431944.67
N4641 417723.19 1431909.64
N4642 417984.17 1431799.48
N4643 418168.45 1431682.81
N4644 418168.12 1431682.15
N4645 418177.15 1431730.12
N4646 418462.71 1431675.42
N4647 418307.14 1431703.75
N4648 418321.82 1431644.54
N4649 418212.83 1431727.70
N4650 418280.42 1431804.47
N4651 418324.02 1431803.13
N4652 418323.36 1431798.70
N4653 418330.08 1431833.52
N4654 418299.46 1431824.21
N4655 418327.00 1431820.37
N4656 418440.13 1431778.56
N4657 418445.55 1431817.37
N4658 418334.53 1431833.84
N4659 418335.86 1431879.95
N4660 418387.25 1431871.18
N4661 418215.54 1432057.15
N4662 418435.90 1432002.42
N4663 418409.67 1432009.24
N4664 418397.16 1431960.40
N4665 418474.88 1431939.60
N4666 418405.16 1431988.24
N4667 418503.49 1431968.27
N4668 418548.19 1432194.42
N4669 418197.42 1432312.02
N4670 418427.06 1432241.22
N4671 418242.37 1432291.53
N4672 418297.08 1432523.29
N4673 418426.38 1432230.39
N4674 418487.74 1432588.65
N4675 418201.49 1432662.04
N4676 418168.40 1432587.71
N4677 418470.77 1432461.73
N4678 418374.77 1432497.74
N4679 418358.58 1432414.73
N4680 416843.59 1431836.83
N4681 416933.36 1431821.41
N4682 417348.45 1431739.33
N4683 417349.02 1431712.78
N4684 416931.67 1431150.10
N4685 416933.31 1431154.30
N4686 417587.07 1432024.95
N4687 417034.48 1429617.71
N4688 417104.57 1429550.37
N4689 416516.84 1429915.44
N4690 416735.95 1429872.64
N4691 416735.84 1429872.09
N4692 417374.78 1431145.02
N4693 416733.26 1429773.23
N4694 417384.20 1431102.74
N4695 416845.33 1430610.65
N4696 416905.05 1430592.23
N4697 416583.15 1430397.22
N4698 416689.94 1430699.93
N4699 416623.29 1430720.26
N4700 416916.65 1430626.92
N4701 416865.28 1430605.51
N4702 416905.74 1430713.44
N4703 416895.23 1430683.05
N4704 416981.15 1430648.73
N4705 416928.48 1430665.92
N4706 416723.93 1430822.70
N4707 416930.93 1430758.60
N4708 416930.60 1430757.49
N4709 416989.06 1430969.88
N4710 417058.79 1430964.14
N4711 417073.37 1429927.38
N4712 417414.71 1429764.11
N4713 417799.34 1429713.09
N4714 417799.23 1429712.43
N4715 417850.99 1430047.60
N4716 417570.94 1429845.05
N4717 417814.37 1429807.72
N4718 417701.73 1429722.89
N4719 417740.56 1429977.48
N4720 417596.08 1429726.64
N4721 417636.37 1429996.92
N4722 417416.06 1429743.65
N4723 417962.66 1430026.59
N4724 417233.41 1429864.74
N4725 417287.82 1429847.77
N4726 417331.97 1429848.19
N4727 417295.02 1429863.12
N4728 417270.46 1429920.93
N4729 417372.22 1429884.57
N4730 417317.51 1430054.27
N4731 417430.38 1429890.04
N4732 417277.85 1429817.05
N4733 417362.01 1430025.72
N4734 417407.84 1430007.89
N4735 417398.06 1429965.23
N4736 417345.62 1429986.29
N4737 417327.05 1429943.87
N4738 417385.24 1429921.47
N4739 417506.18 1429917.68
N4740 417391.95 1429772.92
N4741 417441.52 1429841.45
N4742 417420.16 1429845.28
N4743 417398.18 1429861.38
N4744 417417.25 1429854.24
N4745 417664.80 1429670.36
N4746 417846.98 1429647.92
N4747 417895.35 1429641.26
N4748 417822.45 1429643.68
N4749 417723.61 1429600.40
N4750 417738.75 1429657.42
N4751 417807.01 1429518.76
N4752 417808.99 1429528.04
N4753 416506.57 1429927.97
N4754 416739.56 1429883.47
N4755 417079.94 1430093.14
N4756 417233.63 1430628.63
N4757 417540.01 1430534.92
N4758 417513.00 1430461.13
N4759 417618.69 1430874.99
N4760 417569.17 1430637.58
N4761 417795.13 1430599.09
N4762 417764.67 1430643.75
N4763 417659.73 1430445.76
N4764 417601.96 1430463.74
N4765 417724.85 1430422.45
N4766 417516.39 1430471.07
N4767 417721.74 1430398.02
N4768 417756.47 1430511.83
N4769 417689.38 1430533.93
N4770 417387.57 1430561.04
N4771 417374.81 1430318.76
N4772 417505.15 1430264.29
N4773 417262.35 1430111.62
N4774 417417.06 1430046.02
N4775 417537.85 1430355.66
N4776 417506.90 1430268.93
N4777 417647.11 1430215.54
N4778 417624.92 1430121.38
N4779 417987.26 1430055.50
N4780 417860.63 1430078.98
N4781 417872.44 1430149.40
N4782 417860.52 1430372.06
N4783 417725.50 1430385.29
N4784 418033.22 1430338.82
N4785 417727.05 1430396.90
N4786 418040.38 1430337.69
N4787 418081.49 1430558.20
N4788 417810.12 1430609.00
N4789 416831.22 1429629.38
N4790 416844.75 1429689.84
N4791 417024.01 1429671.60
N4792 417960.91 1430351.53
N4793 417370.26 1429591.39
N4794 417417.69 1429744.64
N4795 417408.58 1429708.50
N4796 417591.44 1429697.12
N4797 417562.16 1429589.93
N4798 417793.27 1429532.18
N4799 418803.63 1430299.94
N4800 418649.82 1430266.66
N4801 418571.66 1430248.75
N4802 418433.31 1429974.99
N4803 418550.47 1430273.37
N4804 418375.67 1429927.28
N4805 418470.70 1430112.47
N4806 418725.55 1430456.11
N4807 418649.43 1430468.50
N4808 418701.04 1430460.50
N4809 418706.92 1430504.72
N4810 418642.95 1430513.64
N4811 418782.07 1430494.10
N4812 418805.59 1430637.47
N4813 418614.30 1430472.25
N4814 418627.46 1430560.14
N4815 418647.41 1430555.88
N4816 418789.35 1430535.55
N4817 418673.64 1430586.77
N4818 418801.61 1430612.93
N4819 414149.58 1442381.16
N4820 414540.31 1442468.65
N4821 414819.90 1442487.35
N4822 414607.01 1442472.75
N4823 414057.57 1442676.97
N4824 414538.64 1442768.15
N4825 419630.92 1441542.66
N4826 420252.15 1441661.96
N4827 420262.16 1441671.00
N4828 419902.06 1441600.04
N4829 419908.10 1442111.53
N4830 419886.04 1441981.76
N4831 420104.68 1441959.11
N4832 419873.04 1442471.29
N4833 420073.97 1442397.82
N4834 420072.88 1442396.94
N4835 420138.34 1442387.79
N4836 420135.32 1442354.18
N4837 420154.42 1442472.46
N4838 420079.34 1442455.98
N4839 419943.71 1442574.60
N4840 420137.33 1442561.54
N4841 420083.03 1442570.11
N4842 419951.13 1442590.29
N4843 419993.92 1442725.09
N4844 420412.54 1442528.45
N4845 420489.32 1442194.56
N4846 420285.39 1442542.42
N4847 420277.19 1442481.40
N4848 420347.28 1442535.17
N4849 420330.84 1442362.90
N4850 420901.64 1442144.16
N4851 420456.50 1442732.82
N4852 420629.18 1442715.40
N4853 420686.68 1442689.57
N4854 420695.08 1442745.73
N4855 420437.22 1442552.38
N4856 420712.21 1442517.52
N4857 420724.32 1442508.64
N4858 420889.76 1442497.99
N4859 420680.71 1442388.11
N4860 420833.49 1442351.17
N4861 420828.37 1442380.27
N4862 420832.84 1442500.92
N4863 420730.08 1442588.69
N4864 420819.75 1442587.88
N4865 420767.69 1442545.45
N4866 420770.38 1442648.41
N4867 420822.32 1442687.63
N4868 420960.17 1442699.84
N4869 420960.67 1442649.96
N4870 420954.74 1442509.19
N4871 420144.15 1442444.84
N4872 420488.29 1442327.94
N4873 420259.92 1442545.81
N4874 420324.55 1442546.95
N4875 420409.77 1442547.04
N4876 419072.94 1440256.96
N4877 418649.73 1439496.86
N4878 418955.80 1439952.72
N4879 418970.38 1439786.89
N4880 418826.63 1440318.07
N4881 418824.77 1440309.22
N4882 418744.74 1440090.15
N4883 418689.74 1439936.47
N4884 418496.16 1440113.44
N4885 418576.63 1439786.17
N4886 418444.39 1439989.07
N4887 418559.14 1440325.82
N4888 418738.31 1440078.33
N4889 418528.62 1440271.72
N4890 418462.34 1440265.06
N4891 418405.31 1440341.10
N4892 418634.15 1440427.46
N4893 418564.07 1440341.96
N4894 418184.89 1440245.09
N4895 418174.92 1440210.50
N4896 418363.67 1440414.44
N4897 418199.22 1440320.70
N4898 418224.19 1440515.05
N4899 418559.86 1440460.64
N4900 418473.45 1440576.13
N4901 418355.22 1440600.82
N4902 418473.49 1440736.50
N4903 418495.58 1440652.49
N4904 418571.30 1440733.11
N4905 418564.13 1440692.32
N4906 418612.16 1440728.90
N4907 418430.04 1440746.58
N4908 418851.95 1440336.02
N4909 418221.66 1440538.72
N4910 418247.10 1440926.95
N4911 418353.29 1440572.07
N4912 418370.84 1440748.30
N4913 418237.07 1440761.53
N4914 418787.05 1440646.99
N4915 418604.98 1440682.14
N4916 418626.33 1440790.79
N4917 418854.35 1440853.82
N4918 418845.59 1440750.99
N4919 418758.73 1440863.95
N4920 418607.15 1440794.06
N4921 418624.37 1440896.20
N4922 418608.23 1440793.83
N4923 418838.06 1440957.39
N4924 418586.40 1440999.83
N4925 418768.36 1441150.81
N4926 418737.48 1440972.39
N4927 419162.57 1441128.52
N4928 418367.27 1441189.26
N4929 419017.51 1441136.47
N4930 419004.40 1441029.12
N4931 418343.88 1441531.74
N4932 418274.69 1441199.16
N4933 418236.18 1441193.63
N4934 418099.08 1441215.16
N4935 417863.05 1440827.34
N4936 417633.68 1440709.14
N4937 417849.26 1440275.40
N4938 417686.47 1440342.02
N4939 417810.74 1440414.86
N4940 417750.51 1440363.17
N4941 418000.95 1440344.29
N4942 418132.76 1440325.10
N4943 417987.85 1440276.42
N4944 418027.67 1440541.85
N4945 418146.26 1440418.62
N4946 418008.45 1440424.12
N4947 417958.18 1440473.37
N4948 417936.75 1440379.54
N4949 417937.62 1440378.87
N4950 417835.22 1440585.66
N4951 417786.70 1440424.23
N4952 417669.02 1440453.88
N4953 418186.42 1440539.05
N4954 417751.83 1440621.96
N4955 418174.23 1440523.49
N4956 418026.76 1440527.80
N4957 418073.83 1440638.37
N4958 418071.16 1440542.93
N4959 418208.37 1440627.57
N4960 418021.49 1440542.20
N4961 418168.21 1440726.01
N4962 418142.01 1440628.54
N4963 418169.02 1440742.16
N4964 418137.46 1440630.00
N4965 418225.22 1441044.47
N4966 418218.35 1440739.69
N4967 418096.01 1440985.35
N4968 418216.94 1440740.36
N4969 419139.24 1441124.61
N4970 418284.08 1441183.98
N4971 418268.52 1440326.24
N4972 418308.42 1440359.30
N4973 418895.11 1439855.35
N4974 418647.25 1439500.96
N4975 418122.40 1440709.23
N4976 418103.32 1440635.74
N4977 418416.99 1440514.70
N4978 417879.65 1440393.98
N4979 418017.13 1440461.36
N4980 418016.38 1440463.58
N4981 411725.13 1442713.88
N4982 411840.77 1442730.43
N4983 411804.65 1442725.79
N4984 411822.18 1442512.06
N4985 411774.07 1442590.74
N4986 411819.18 1442556.97
N4987 411825.32 1442342.17
N4988 411868.38 1442513.90
N4989 412090.20 1441114.24
N4990 412093.61 1441231.58
N4991 412036.48 1441233.97
N4992 412055.24 1441234.02
N4993 412057.42 1441307.34
N4994 412276.60 1441350.77
N4995 412033.56 1441305.32
N4996 412147.80 1441358.48
N4997 412171.92 1441474.75
N4998 412033.13 1441476.08
N4999 411828.74 1442326.12
N5000 412947.21 1442527.39
N5001 411976.81 1442752.34
N5002 412107.90 1442580.38
N5003 412051.27 1442471.29
N5004 412058.89 1442580.54
N5005 412099.80 1442422.47
N5006 412215.19 1442767.39
N5007 412148.29 1442426.52
N5008 412172.39 1442776.04
N5009 412163.50 1442572.68
N5010 412262.32 1442550.25
N5011 411833.54 1442300.01
N5012 412447.76 1442422.80
N5013 411933.77 1442346.25
N5014 411980.88 1442228.97
N5015 412047.08 1442246.02
N5016 412083.08 1442109.31
N5017 412062.22 1442199.07
N5018 412129.17 1442213.90
N5019 412121.69 1442213.82
N5020 412112.52 1442365.36
N5021 412153.11 1441968.63
N5022 412427.46 1441973.29
N5023 412350.65 1441926.08
N5024 412422.09 1441921.10
N5025 412391.82 1441674.90
N5026 412428.49 1441987.33
N5027 412547.94 1442009.84
N5028 412319.24 1441324.64
N5029 412353.73 1441666.17
N5030 412137.69 1442096.86
N5031 412125.59 1442145.90
N5032 412429.89 1442597.82
N5033 412414.35 1442689.56
N5034 412645.86 1441428.12
N5035 412483.02 1441472.66
N5036 412313.67 1441482.37
N5037 412467.10 1441480.45
N5038 412662.34 1441395.33
N5039 411978.55 1442720.81
N5040 412114.50 1442712.86
N5041 412582.58 1442195.43
N5042 412472.59 1441433.20
N5043 412562.10 1442201.24
N5044 411779.74 1442768.78
N5045 411785.34 1442723.20
N5046 412795.37 1442654.06
N5047 412311.58 1441473.31
N5048 412115.80 1442405.83
N5049 412180.19 1441687.96
N5050 412216.26 1441062.97
N5051 412336.26 1441287.10
N5052 412820.36 1442532.22
N5053 414189.84 1442738.71
N5054 412836.54 1442507.39
N5055 414192.27 1442720.67
N5056 413247.33 1442522.68
N5057 413264.59 1442735.64
N5058 413256.42 1442688.11
N5059 413171.20 1442691.91
N5060 413436.40 1442651.37
N5061 413491.35 1442538.39
N5062 415697.78 1442245.54
N5063 416028.33 1442154.95
N5064 415680.98 1442143.29
N5065 416011.49 1442072.93
N5066 415671.05 1442087.14
N5067 415993.84 1442009.06
N5068 416133.63 1442194.44
N5069 416314.73 1442093.69
N5070 416331.02 1442138.65
N5071 416041.79 1441912.70
N5072 416106.14 1442140.44
N5073 416311.49 1442061.18
N5074 416318.11 1442098.88
N5075 415632.74 1441896.47
N5076 416109.35 1441627.15
N5077 415949.44 1441850.27
N5078 416206.49 1441695.43
N5079 415515.20 1441155.17
N5080 415594.62 1441807.23
N5081 415835.82 1441822.97
N5082 415781.07 1441611.79
N5083 415572.78 1441651.02
N5084 415829.61 1441600.47
N5085 415661.75 1441632.61
N5086 415589.49 1441724.63
N5087 416200.28 1441864.33
N5088 416155.55 1441737.28
N5089 416116.08 1441630.89
N5090 416222.98 1441624.04
N5091 416293.04 1441702.13
N5092 416235.88 1441482.44
N5093 416014.97 1441543.61
N5094 416166.93 1441164.90
N5095 415947.03 1441096.56
N5096 415831.69 1441605.22
N5097 416013.56 1441542.06
N5098 415841.79 1441504.10
N5099 415909.28 1441590.71
N5100 415901.37 1441592.51
N5101 415961.04 1441745.94
N5102 415966.18 1441579.92
N5103 416023.04 1441699.97
N5104 415717.79 1441662.63
N5105 415672.60 1441671.95
N5106 415561.08 1441583.26
N5107 415794.35 1441523.27
N5108 415549.74 1441529.22
N5109 415767.29 1441469.16
N5110 415532.67 1441406.95
N5111 415717.64 1441366.57
N5112 415511.68 1441351.94
N5113 415677.58 1441313.71
N5114 415501.52 1441293.46
N5115 415660.51 1441264.22
N5116 415300.05 1441188.35
N5117 415482.02 1441227.38
N5118 415308.53 1441301.13
N5119 415489.58 1441287.64
N5120 415381.92 1441434.06
N5121 415513.50 1441414.86
N5122 415501.61 1441356.61
N5123 415342.97 1441533.06
N5124 415338.52 1441533.74
N5125 415529.50 1441505.94
N5126 415541.38 1441561.20
N5127 415382.32 1441847.59
N5128 415364.84 1441768.45
N5129 415580.20 1441737.71
N5130 415350.71 1441686.76
N5131 415560.06 1441641.99
N5132 415815.26 1441763.64
N5133 415382.10 1441846.26
N5134 416048.47 1442216.93
N5135 415662.36 1441232.58
N5136 415645.36 1441134.31
N5137 415767.71 1441322.17
N5138 415838.90 1441163.36
N5139 415956.54 1441156.92
N5140 415656.15 1442001.91
N5141 415971.48 1441930.94
N5142 416353.21 1441840.53
N5143 416020.19 1441548.46
N5144 416351.15 1441841.09
N5145 415513.31 1441177.41
N5146 415265.13 1440764.32
N5147 415444.81 1440763.43
N5148 416023.53 1440723.07
N5149 415486.13 1440835.53
N5150 415476.62 1440916.62
N5151 415533.15 1440820.45
N5152 415536.56 1440942.54
N5153 415661.28 1440770.95
N5154 415678.93 1441117.40
N5155 415921.39 1440725.92
N5156 415926.81 1441045.86
N5157 416090.33 1441186.59
N5158 415656.13 1440222.63
N5159 415870.00 1440232.37
N5160 415865.46 1440271.76
N5161 415646.26 1440259.82
N5162 415658.32 1440302.48
N5163 415863.87 1440318.99
N5164 415668.43 1440416.80
N5165 415855.17 1440418.89
N5166 415926.26 1440759.31
N5167 415779.90 1440839.05
N5168 415940.37 1440870.30
N5169 415842.37 1440877.02
N5170 415843.67 1440877.01
N5171 415852.67 1440984.48
N5172 415668.19 1440975.32
N5173 415100.74 1440656.88
N5174 415577.25 1440810.69
N5175 415584.70 1440978.23
N5176 415499.84 1440992.86
N5177 415965.13 1441199.92
N5178 415707.55 1441045.76
N5179 415916.59 1441036.38
N5180 415927.00 1441036.90
N5181 415922.74 1441097.74
N5182 415615.68 1440082.41
N5183 415853.67 1440460.70
N5184 415855.76 1440717.38
N5185 416509.82 1441136.99
N5186 416490.75 1440817.20
N5187 416435.33 1440813.94
N5188 416422.86 1440957.53
N5189 416098.79 1440653.49
N5190 416363.62 1440626.03
N5191 416362.21 1440626.15
N5192 416425.72 1441149.63
N5193 416352.67 1440626.95
N5194 416415.54 1441154.75
N5195 416299.60 1441041.85
N5196 416398.66 1441022.64
N5197 416247.28 1440986.60
N5198 416389.21 1440948.68
N5199 416660.30 1440157.97
N5200 416602.98 1440601.86
N5201 416667.32 1440614.16
N5202 416695.51 1440327.52
N5203 416746.07 1440335.44
N5204 416737.93 1440619.92
N5205 416834.47 1440233.76
N5206 416805.86 1440599.81
N5207 416830.76 1440262.30
N5208 416923.90 1440368.53
N5209 416812.82 1440389.77
N5210 416936.55 1440427.77
N5211 416811.59 1440451.59
N5212 416939.19 1440476.98
N5213 416820.09 1440536.40
N5214 416920.77 1440551.80
N5215 416807.15 1440561.76
N5216 417088.07 1440619.53
N5217 416806.00 1440611.20
N5218 416949.98 1440637.09
N5219 416599.21 1440611.05
N5220 417469.93 1440780.52
N5221 416986.88 1440468.32
N5222 416948.82 1440503.93
N5223 416958.07 1440732.84
N5224 416997.04 1440458.22
N5225 417252.63 1440709.61
N5226 416972.96 1440489.93
N5227 417107.93 1440622.12
N5228 416961.35 1440631.63
N5229 417214.29 1440688.27
N5230 416597.45 1440638.49
N5231 417254.80 1441035.53
N5232 417271.33 1440798.26
N5233 416595.57 1440661.61
N5234 417296.68 1440791.43
N5235 416959.49 1440843.76
N5236 417268.11 1440845.38
N5237 416563.14 1441054.43
N5238 416847.51 1441035.32
N5239 416580.26 1440834.40
N5240 416834.80 1440846.57
N5241 416890.08 1440804.60
N5242 416890.80 1440719.77
N5243 416958.18 1440910.90
N5244 417263.57 1440922.92
N5245 417263.78 1440921.15
N5246 417408.89 1440927.68
N5247 417450.87 1440860.43
N5248 417269.75 1441032.28
N5249 417348.68 1441061.80
N5250 417474.50 1440858.14
N5251 416849.50 1441083.54
N5252 416829.54 1440719.74
N5253 416845.09 1440988.55
N5254 417260.71 1440983.09
N5255 416637.20 1440192.11
N5256 416579.39 1440617.53
N5257 416626.29 1440315.90
N5258 416943.52 1440724.59
N5259 416885.02 1441103.56
N5260 416552.18 1441157.65
N5261 417175.23 1440645.81
N5262 417119.12 1440700.95
N5263 410110.07 1442787.68
N5264 410223.29 1442759.88
N5265 410014.55 1442260.66
N5266 410228.98 1442244.48
N5267 410021.20 1442301.89
N5268 410231.95 1442288.60
N5269 410166.13 1442323.87
N5270 410107.56 1442418.40
N5271 410010.74 1442122.98
N5272 410286.37 1442087.24
N5273 410007.52 1442166.79
N5274 410290.85 1442130.69
N5275 410016.01 1442209.23
N5276 410294.36 1442174.70
N5277 410020.84 1442258.65
N5278 410307.98 1442230.28
N5279 410278.21 1442045.13
N5280 410314.58 1442291.09
N5281 410367.15 1442283.62
N5282 410309.10 1442238.57
N5283 410436.36 1442227.21
N5284 410367.70 1442288.04
N5285 410438.91 1442278.63
N5286 410310.31 1442146.00
N5287 410431.93 1442131.12
N5288 410347.93 1442142.34
N5289 410386.51 1442436.18
N5290 410289.25 1442072.96
N5291 410387.27 1442069.55
N5292 410251.13 1442352.57
N5293 410450.46 1442327.81
N5294 410264.83 1442398.09
N5295 410380.27 1442385.11
N5296 410380.93 1442388.42
N5297 410455.72 1442378.67
N5298 410461.02 1442342.93
N5299 410600.22 1442332.63
N5300 410453.51 1442299.15
N5301 410524.52 1442294.06
N5302 410524.29 1442290.63
N5303 410600.40 1442287.84
N5304 410527.91 1442338.84
N5305 410519.39 1442251.27
N5306 410526.22 1442251.36
N5307 410472.95 1442176.55
N5308 410434.41 1442227.66
N5309 410518.17 1442209.58
N5310 410560.66 1442173.28
N5311 410571.32 1442248.01
N5312 410447.63 1442257.81
N5313 410693.44 1442155.48
N5314 410393.31 1442128.03
N5315 410386.77 1441883.97
N5316 410480.21 1441873.27
N5317 410502.82 1441957.25
N5318 410492.88 1441934.16
N5319 410519.76 1441931.42
N5320 410426.32 1441973.20
N5321 410502.27 1441956.03
N5322 410425.09 1442064.23
N5323 410432.09 1442115.08
N5324 410535.22 1442050.93
N5325 410427.97 1442081.91
N5326 410539.06 1442065.51
N5327 410562.97 1442083.24
N5328 410647.09 1442073.57
N5329 410721.74 1442423.37
N5330 410462.00 1442075.72
N5331 410520.29 1442028.19
N5332 411113.29 1441954.38
N5333 411108.66 1442299.02
N5334 410687.59 1442125.09
N5335 410975.55 1442144.28
N5336 410640.08 1441984.34
N5337 410765.55 1441989.13
N5338 410771.36 1441943.10
N5339 410761.27 1442041.90
N5340 410744.96 1442126.78
N5341 410757.38 1442044.79
N5342 410848.49 1442052.23
N5343 410842.02 1442132.22
N5344 410892.19 1442053.86
N5345 410883.67 1442133.96
N5346 410645.56 1442036.63
N5347 410981.55 1442055.23
N5348 411001.74 1441929.75
N5349 410989.60 1442065.71
N5350 411132.12 1442077.09
N5351 411067.35 1442032.28
N5352 411066.40 1442073.32
N5353 411029.95 1442069.67
N5354 411017.29 1442209.07
N5355 410998.32 1441978.64
N5356 411104.61 1441986.60
N5357 411038.74 1442071.19
N5358 411032.50 1442118.22
N5359 410927.86 1442252.49
N5360 410931.71 1442203.04
N5361 411124.67 1442220.33
N5362 411148.43 1442427.19
N5363 411157.53 1442321.43
N5364 411156.66 1442321.43
N5365 411298.63 1442332.69
N5366 411113.70 1442482.93
N5367 411268.12 1442488.62
N5368 411265.57 1442535.53
N5369 411095.87 1442534.86
N5370 410823.40 1442642.58
N5371 411085.02 1442633.33
N5372 410935.12 1442553.07
N5373 411098.16 1442538.94
N5374 410998.86 1442545.79
N5375 411095.34 1442538.95
N5376 411284.74 1442429.51
N5377 411521.88 1442463.59
N5378 411473.20 1442465.62
N5379 411452.72 1442601.95
N5380 411503.59 1442609.63
N5381 411373.23 1442498.57
N5382 411465.87 1442512.54
N5383 411329.11 1442502.92
N5384 411311.78 1442642.99
N5385 411263.27 1442630.21
N5386 411495.97 1442667.39
N5387 411256.84 1442688.51
N5388 411439.19 1442712.48
N5389 411308.05 1442696.53
N5390 411301.93 1442783.04
N5391 411430.25 1442798.88
N5392 411346.40 1442788.42
N5393 411354.68 1442700.03
N5394 411446.83 1442660.25
N5395 410592.50 1442594.55
N5396 410794.67 1442575.65
N5397 411007.31 1442744.29
N5398 411061.11 1442749.97
N5399 411007.18 1442740.30
N5400 410968.35 1442736.23
N5401 411618.49 1442191.43
N5402 411550.80 1442689.45
N5403 411652.56 1442705.27
N5404 411555.31 1442640.99
N5405 411660.42 1442653.59
N5406 411583.34 1442590.02
N5407 411667.74 1442603.25
N5408 411569.82 1442534.44
N5409 411675.37 1442549.03
N5410 411531.23 1442469.97
N5411 411683.22 1442493.37
N5412 411584.54 1442424.23
N5413 411690.62 1442435.40
N5414 411592.19 1442374.33
N5415 411696.87 1442389.48
N5416 411598.86 1442324.54
N5417 411703.97 1442339.02
N5418 410401.25 1442134.64
N5419 410393.39 1441883.61
N5420 411487.08 1442802.46
N5421 411547.84 1442745.97
N5422 411495.88 1442737.95
N5423 410439.24 1442247.55
N5424 410635.81 1441904.94
N5425 411719.80 1442234.46
N5426 410010.78 1440242.26
N5427 410090.19 1440385.55
N5428 410121.69 1440401.04
N5429 410156.43 1440514.07
N5430 410109.21 1440529.93
N5431 410218.76 1441038.33
N5432 410122.88 1441097.81
N5433 410119.46 1441048.71
N5434 410216.59 1440972.75
N5435 410129.29 1440936.20
N5436 410211.11 1440920.23
N5437 410088.86 1440906.59
N5438 410205.57 1440884.86
N5439 410084.25 1440856.39
N5440 410186.02 1440840.79
N5441 410102.99 1440853.12
N5442 410086.07 1440750.76
N5443 410063.42 1440755.26
N5444 410162.79 1440734.25
N5445 410161.80 1440730.16
N5446 410244.16 1440712.53
N5447 410137.45 1440612.24
N5448 410215.04 1440596.39
N5449 410260.72 1440771.09
N5450 410212.39 1440680.23
N5451 410234.38 1440674.19
N5452 410119.74 1440567.94
N5453 410205.11 1440543.00
N5454 410175.88 1440790.39
N5455 410278.82 1440766.39
N5456 410192.26 1440724.87
N5457 410219.39 1440831.95
N5458 410236.13 1440777.15
N5459 410248.52 1440821.01
N5460 410198.34 1440861.44
N5461 410274.44 1440886.63
N5462 410207.57 1440898.12
N5463 410284.29 1441048.07
N5464 410249.86 1441065.21
N5465 410014.78 1441203.23
N5466 410194.08 1441152.88
N5467 410140.14 1441169.75
N5468 410145.57 1441238.31
N5469 410040.42 1441251.15
N5470 410188.39 1441234.07
N5471 410031.36 1441199.08
N5472 410053.43 1441283.84
N5473 410115.85 1441270.25
N5474 410112.18 1441242.84
N5475 410020.67 1441277.75
N5476 410049.29 1441276.44
N5477 410186.25 1441210.85
N5478 410192.85 1441272.77
N5479 410168.99 1441272.18
N5480 410192.18 1441268.13
N5481 410221.94 1441248.78
N5482 410354.52 1441237.07
N5483 410350.17 1441234.43
N5484 410256.07 1441239.27
N5485 410240.57 1441076.30
N5486 410258.21 1441265.48
N5487 410257.45 1441265.37
N5488 410369.68 1441262.13
N5489 410214.98 1441208.11
N5490 410252.38 1441204.56
N5491 410215.18 1441204.68
N5492 410339.39 1441187.02
N5493 410338.43 1441190.89
N5494 410259.97 1441239.04
N5495 410369.59 1441268.21
N5496 410963.51 1440368.23
N5497 410957.66 1440302.33
N5498 411046.11 1440288.77
N5499 410962.56 1440342.24
N5500 411178.42 1440327.06
N5501 411292.47 1440318.73
N5502 411044.82 1440292.76
N5503 411051.78 1440367.50
N5504 411285.19 1440280.15
N5505 411281.38 1440241.12
N5506 411284.74 1440274.18
N5507 411232.70 1440244.15
N5508 411288.61 1440297.84
N5509 411431.23 1440270.39
N5510 411298.26 1440296.26
N5511 411305.81 1440353.52
N5512 411348.76 1440287.14
N5513 411365.13 1440388.06
N5514 411436.13 1440309.53
N5515 411492.32 1440788.01
N5516 411315.19 1440401.93
N5517 411447.86 1440384.03
N5518 410891.25 1440523.85
N5519 411046.06 1440509.75
N5520 411002.40 1440454.48
N5521 411014.78 1440594.13
N5522 411039.73 1440428.92
N5523 411137.62 1440586.87
N5524 411475.86 1440559.79
N5525 411084.98 1440607.83
N5526 411174.75 1440736.83
N5527 411475.57 1440569.64
N5528 411131.66 1440689.64
N5529 411097.08 1440692.51
N5530 411098.39 1440697.15
N5531 411125.06 1440695.85
N5532 411076.19 1440741.02
N5533 411102.97 1440737.18
N5534 411173.74 1440693.26
N5535 411176.05 1440770.89
N5536 410905.13 1440790.46
N5537 411562.16 1440790.22
N5538 410936.38 1440797.99
N5539 411499.98 1440675.62
N5540 411719.91 1440646.93
N5541 411717.64 1440615.64
N5542 411806.71 1440593.79
N5543 411784.96 1440541.66
N5544 411785.47 1440599.06
N5545 411663.33 1440653.75
N5546 411683.48 1440784.08
N5547 411671.08 1440739.11
N5548 411568.21 1440751.05
N5549 411573.10 1440788.09
N5550 411553.53 1440668.26
N5551 411561.03 1440708.49
N5552 411670.40 1440694.21
N5553 411824.00 1440777.99
N5554 411794.92 1440434.24
N5555 411473.80 1440460.04
N5556 411922.95 1440422.55
N5557 411467.61 1440420.80
N5558 411914.26 1440383.09
N5559 411643.55 1440268.82
N5560 411665.91 1440443.94
N5561 411459.99 1440377.91
N5562 411915.54 1440343.93
N5563 411654.92 1440399.07
N5564 411648.66 1440340.03
N5565 411962.60 1440307.07
N5566 411964.76 1440339.57
N5567 412001.84 1440336.91
N5568 412052.89 1440227.48
N5569 412064.32 1440276.44
N5570 412095.11 1440273.57
N5571 412095.99 1440278.22
N5572 412049.51 1440018.02
N5573 412116.47 1440034.95
N5574 412058.18 1440050.84
N5575 412071.38 1440107.20
N5576 412194.60 1440085.35
N5577 412213.35 1440181.73
N5578 412087.35 1440185.34
N5579 411261.72 1439961.37
N5580 411354.67 1440170.21
N5581 411298.95 1440176.59
N5582 411416.33 1440156.41
N5583 411430.13 1440166.10
N5584 411866.63 1440104.54
N5585 411197.81 1440320.69
N5586 411921.01 1440526.40
N5587 411941.08 1440766.78
N5588 411932.12 1440678.88
N5589 412064.57 1440660.65
N5590 412049.02 1440611.82
N5591 411929.27 1440635.09
N5592 411947.83 1441012.39
N5593 411833.57 1441022.71
N5594 411504.76 1441048.87
N5595 411790.86 1441028.38
N5596 411760.06 1440790.47
N5597 411911.22 1440892.62
N5598 411778.00 1440905.77
N5599 411783.20 1440939.71
N5600 411915.01 1440923.91
N5601 411489.31 1440796.65
N5602 411514.42 1441423.33
N5603 411508.04 1441191.87
N5604 411863.74 1441167.61
N5605 411795.93 1441018.85
N5606 411892.35 1441297.47
N5607 411852.54 1441122.74
N5608 411921.49 1441117.21
N5609 411919.78 1441093.00
N5610 411927.48 1441296.47
N5611 411954.43 1441112.02
N5612 411998.46 1441113.43
N5613 411971.51 1441230.20
N5614 411969.63 1441115.84
N5615 411997.16 1441113.54
N5616 411998.51 1441229.89
N5617 411977.26 1441231.39
N5618 411983.69 1441308.68
N5619 411513.34 1441289.62
N5620 411522.54 1441418.43
N5621 411498.63 1440796.84
N5622 411353.54 1440794.87
N5623 411365.08 1441112.25
N5624 411330.84 1441355.68
N5625 411357.96 1441090.38
N5626 411213.27 1440980.69
N5627 411145.98 1440793.11
N5628 411927.45 1440778.10
N5629 411948.93 1441290.65
N5630 411231.52 1440247.26
N5631 410878.12 1440384.87
N5632 411769.91 1438515.12
N5633 411749.86 1438417.96
N5634 411760.86 1438466.37
N5635 411784.81 1438458.44
N5636 411750.84 1438416.63
N5637 412065.71 1438331.24
N5638 411862.88 1438389.07
N5639 411759.15 1438168.87
N5640 411828.28 1438453.55
N5641 411958.23 1438394.85
N5642 411944.26 1438368.79
N5643 411846.50 1438488.00
N5644 411586.60 1438571.00
N5645 411609.75 1438688.60
N5646 411606.77 1438672.35
N5647 411756.02 1438646.77
N5648 411600.60 1438641.96
N5649 411742.26 1438617.84
N5650 411615.81 1438582.19
N5651 411626.94 1438637.56
N5652 411619.00 1438598.44
N5653 411760.38 1438585.82
N5654 411761.03 1438652.95
N5655 411844.30 1438647.15
N5656 411879.01 1438615.30
N5657 411764.19 1438624.29
N5658 411766.57 1438590.11
N5659 411898.73 1438577.86
N5660 411552.27 1438586.71
N5661 411610.26 1438881.71
N5662 411544.70 1438862.45
N5663 411603.97 1438849.54
N5664 411489.96 1438634.79
N5665 411527.01 1438824.46
N5666 411525.03 1438816.39
N5667 411595.39 1438809.31
N5668 411587.46 1438772.29
N5669 411520.07 1438793.18
N5670 411358.40 1438832.08
N5671 411522.07 1438807.67
N5672 412221.39 1439301.57
N5673 412183.11 1439097.31
N5674 412261.85 1439236.52
N5675 412232.69 1439138.29
N5676 412320.78 1439148.74
N5677 411941.27 1439231.68
N5678 412014.67 1439430.19
N5679 411950.47 1439227.23
N5680 412042.57 1439473.90
N5681 411867.99 1439273.61
N5682 412482.41 1438924.27
N5683 412563.21 1438824.25
N5684 411859.43 1439243.45
N5685 411671.84 1438977.29
N5686 411735.98 1439264.74
N5687 411669.25 1439320.37
N5688 412619.24 1438777.96
N5689 412487.60 1438920.49
N5690 412515.62 1439070.82
N5691 412373.24 1439073.15
N5692 412365.97 1439004.27
N5693 412377.86 1439195.01
N5694 412552.10 1439219.12
N5695 412375.55 1439183.96
N5696 412494.86 1439191.10
N5697 412420.19 1439071.01
N5698 412423.57 1439279.58
N5699 412367.28 1439074.61
N5700 412339.35 1439191.26
N5701 412338.49 1439226.44
N5702 412272.69 1439234.72
N5703 412318.32 1439228.82
N5704 412330.31 1439282.87
N5705 412331.34 1439264.17
N5706 412418.07 1439256.71
N5707 412337.95 1439194.48
N5708 412366.90 1439194.27
N5709 412493.65 1438229.57
N5710 412415.55 1438394.72
N5711 412501.18 1438379.19
N5712 412416.00 1438398.92
N5713 412501.73 1438382.72
N5714 412512.79 1438450.37
N5715 412415.03 1438470.37
N5716 412442.83 1438619.15
N5717 412537.45 1438602.37
N5718 412441.64 1438619.04
N5719 412442.17 1438614.50
N5720 412436.43 1438583.00
N5721 412531.70 1438566.66
N5722 412435.76 1438578.36
N5723 412430.45 1438543.09
N5724 412525.06 1438525.54
N5725 412422.52 1438505.63
N5726 412524.07 1438519.68
N5727 412415.69 1438473.69
N5728 412513.56 1438455.35
N5729 412492.10 1438664.78
N5730 412545.43 1438655.32
N5731 412568.34 1438631.25
N5732 412578.26 1438748.89
N5733 411572.77 1438891.45
N5734 412217.42 1439076.19
N5735 412509.42 1439199.90
N5736 412287.51 1439291.19
N5737 412307.24 1439291.57
N5738 412528.32 1438251.58
N5739 411816.69 1439376.19
N5740 413394.84 1437084.04
N5741 413397.38 1437305.45
N5742 413377.33 1437309.05
N5743 413561.97 1437291.88
N5744 413349.46 1437173.10
N5745 413388.72 1437171.43
N5746 413487.89 1437185.72
N5747 413388.92 1437165.35
N5748 413488.79 1437299.08
N5749 413490.59 1437321.30
N5750 413524.01 1437293.11
N5751 413569.82 1437410.42
N5752 413453.55 1437301.84
N5753 413467.83 1437463.71
N5754 413686.39 1437473.31
N5755 413714.64 1437387.73
N5756 413649.40 1437541.11
N5757 413462.43 1437470.81
N5758 413686.41 1437481.50
N5759 413464.12 1437596.22
N5760 413630.12 1437653.10
N5761 413562.43 1437612.72
N5762 413563.61 1437642.14
N5763 413554.81 1437604.56
N5764 413541.36 1437463.59
N5765 413509.45 1437662.44
N5766 414194.02 1437709.52
N5767 413684.37 1437486.37
N5768 413872.34 1437494.30
N5769 413682.35 1437498.32
N5770 413865.84 1437498.52
N5771 413783.74 1437497.67
N5772 413785.87 1437657.59
N5773 413731.42 1437585.21
N5774 413785.22 1437588.25
N5775 413560.20 1437661.94
N5776 413535.87 1437893.61
N5777 413545.95 1437889.71
N5778 413570.07 1437661.36
N5779 413630.57 1437658.07
N5780 413592.61 1437935.46
N5781 413654.21 1437726.68
N5782 413838.03 1437724.23
N5783 413691.05 1437783.63
N5784 413827.85 1437798.47
N5785 413754.49 1437784.98
N5786 413828.59 1437794.49
N5787 413680.25 1437730.80
N5788 413657.27 1437975.96
N5789 413682.71 1437891.05
N5790 413816.07 1437882.45
N5791 413668.58 1437953.14
N5792 413799.78 1437980.05
N5793 413788.60 1438046.66
N5794 413840.89 1437669.03
N5795 413790.52 1437653.26
N5796 414027.37 1437651.86
N5797 413869.23 1437506.03
N5798 413872.55 1437665.95
N5799 413833.42 1437497.85
N5800 413846.19 1437663.04
N5801 413904.88 1437669.94
N5802 413892.87 1437817.73
N5803 413980.94 1437822.43
N5804 413900.37 1437823.57
N5805 413980.42 1437829.51
N5806 413900.15 1437717.18
N5807 413980.08 1437719.80
N5808 413979.92 1437701.67
N5809 413983.34 1437894.31
N5810 413822.35 1437877.78
N5811 414023.19 1437912.11
N5812 414011.76 1438106.46
N5813 413940.16 1437888.92
N5814 413928.68 1438102.52
N5815 413946.99 1437889.56
N5816 413944.10 1437936.46
N5817 414077.60 1437655.35
N5818 414151.60 1437669.06
N5819 413979.99 1437238.49
N5820 413998.86 1437447.23
N5821 414089.35 1437426.27
N5822 414111.02 1437662.00
N5823 414102.76 1437656.16
N5824 414093.34 1437450.81
N5825 414049.61 1437479.92
N5826 414098.51 1437476.34
N5827 414001.16 1437452.31
N5828 414065.64 1437437.07
N5829 414018.39 1437448.17
N5830 414020.51 1437504.46
N5831 414102.39 1437572.66
N5832 414065.19 1437573.11
N5833 414057.03 1437633.74
N5834 414053.99 1437632.09
N5835 414050.75 1437567.84
N5836 414034.95 1437541.90
N5837 414029.41 1437541.26
N5838 414015.94 1437603.01
N5839 414038.47 1437523.97
N5840 414019.64 1437607.42
N5841 414029.56 1437517.48
N5842 414042.25 1437520.20
N5843 414035.42 1437519.34
N5844 414104.71 1437518.02
N5845 413973.02 1437575.16
N5846 413991.49 1437655.18
N5847 414169.56 1437724.41
N5848 414313.20 1438125.32
N5849 414332.16 1438155.01
N5850 413966.01 1437242.18
N5851 413992.23 1437233.36
N5852 414053.70 1437433.79
N5853 414007.28 1437259.97
N5854 414047.20 1437435.91
N5855 413973.25 1437302.76
N5856 413408.70 1436729.98
N5857 413563.34 1436723.63
N5858 413511.41 1436731.09
N5859 413465.02 1436359.08
N5860 413371.08 1436631.33
N5861 413336.91 1436560.10
N5862 413176.05 1436481.97
N5863 413356.83 1436477.76
N5864 413202.78 1436396.18
N5865 413350.97 1436375.03
N5866 413201.57 1436390.32
N5867 413371.23 1436365.34
N5868 413231.99 1436336.36
N5869 413192.54 1436347.77
N5870 413192.38 1436330.40
N5871 413205.69 1436389.42
N5872 413447.55 1436357.36
N5873 413403.44 1436159.64
N5874 413100.41 1436329.26
N5875 413502.56 1436119.63
N5876 413262.31 1436252.43
N5877 413159.67 1435757.17
N5878 413268.15 1436246.55
N5879 413253.43 1436224.59
N5880 413094.47 1436269.66
N5881 413252.00 1436217.96
N5882 413165.32 1436242.34
N5883 413239.28 1436172.43
N5884 413145.64 1436194.30
N5885 413237.31 1436165.47
N5886 413143.02 1436188.22
N5887 413218.11 1436096.96
N5888 413137.89 1436109.27
N5889 413216.03 1436089.89
N5890 413134.73 1436103.64
N5891 413174.21 1436104.18
N5892 413179.29 1436133.80
N5893 413178.11 1436103.72
N5894 413182.77 1436135.23
N5895 413204.84 1436050.55
N5896 413037.38 1436082.27
N5897 413077.16 1436074.62
N5898 413087.75 1436132.76
N5899 413080.19 1436074.06
N5900 413202.76 1436042.82
N5901 413037.79 1436074.64
N5902 413155.94 1436053.47
N5903 413099.37 1435757.58
N5904 413105.55 1435757.34
N5905 413163.96 1436051.90
N5906 413314.11 1436204.38
N5907 413280.72 1435829.23
N5908 413225.37 1435852.96
N5909 413206.83 1435750.17
N5910 413272.46 1435822.84
N5911 413264.68 1435730.08
N5912 413281.46 1435822.15
N5913 413290.58 1435826.99
N5914 413320.49 1436200.49
N5915 413273.16 1435943.61
N5916 413014.78 1436000.61
N5917 413098.22 1436013.29
N5918 413091.73 1435984.44
N5919 413185.07 1435903.19
N5920 413283.41 1435893.26
N5921 413285.89 1435885.84
N5922 413184.08 1435896.23
N5923 413361.42 1435761.41
N5924 413271.24 1435780.93
N5925 413270.03 1435775.18
N5926 413360.74 1435754.33
N5927 413296.17 1435949.96
N5928 413277.74 1435951.45
N5929 413294.10 1435946.09
N5930 413278.05 1435946.47
N5931 413287.26 1435908.62
N5932 413387.65 1435894.59
N5933 413288.65 1435901.76
N5934 413385.46 1435887.96
N5935 413336.85 1435883.36
N5936 413338.19 1435896.30
N5937 413374.74 1436172.78
N5938 413329.94 1435995.75
N5939 413382.11 1436169.33
N5940 413336.12 1435994.18
N5941 413314.65 1435998.23
N5942 413381.86 1435986.30
N5943 413381.62 1435980.21
N5944 413312.14 1435992.26
N5945 413344.33 1435985.97
N5946 413328.35 1435904.07
N5947 413334.96 1435903.27
N5948 413351.07 1435990.93
N5949 413412.16 1435998.70
N5950 413429.89 1436084.80
N5951 413526.89 1436271.73
N5952 413534.26 1436408.19
N5953 413713.23 1436380.31
N5954 413583.79 1436397.75
N5955 413489.82 1436277.49
N5956 413682.00 1436208.21
N5957 413517.71 1436180.74
N5958 413517.50 1436215.58
N5959 413509.03 1436108.55
N5960 413510.56 1436113.41
N5961 413764.94 1436060.30
N5962 413514.43 1436137.95
N5963 413742.44 1436114.12
N5964 413798.23 1436197.78
N5965 413689.07 1436215.04
N5966 413689.92 1436242.14
N5967 413761.24 1436230.52
N5968 413812.59 1436245.07
N5969 413703.77 1436266.98
N5970 413754.04 1436285.18
N5971 413773.11 1436349.93
N5972 413711.26 1436373.57
N5973 413841.47 1436323.73
N5974 413218.31 1436471.89
N5975 413401.91 1436363.26
N5976 413848.31 1436327.69
N5977 413370.35 1435810.26
N5978 413228.84 1435852.07
N5979 413213.44 1435748.27
N5980 413369.14 1435803.74
N5981 413681.83 1436257.98
N5982 411486.45 1433880.89
N5983 411445.80 1433922.60
N5984 411535.46 1433875.86
N5985 411563.76 1434007.71
N5986 411691.40 1434001.45
N5987 411688.42 1433950.25
N5988 411459.17 1434067.11
N5989 412118.18 1433992.01
N5990 412034.87 1433887.65
N5991 412075.93 1434007.74
N5992 411991.39 1433891.88
N5993 412032.70 1434024.03
N5994 411826.11 1433999.69
N5995 412008.65 1433963.16
N5996 411826.46 1434040.83
N5997 411819.84 1434041.62
N5998 411818.91 1433953.15
N5999 411754.28 1433956.78
N6000 411757.61 1434050.67
N6001 411741.16 1434062.78
N6002 411673.92 1434065.54
N6003 411674.93 1434108.56
N6004 411680.54 1434065.52
N6005 411742.95 1434113.43
N6006 411566.06 1434084.57
N6007 411566.54 1434233.21
N6008 411464.20 1434079.04
N6009 411566.56 1434138.65
N6010 411575.98 1434202.55
N6011 411731.96 1434204.48
N6012 411671.58 1434213.08
N6013 411732.10 1434214.99
N6014 411576.71 1434158.97
N6015 411775.32 1434163.09
N6016 411731.73 1434164.01
N6017 411732.53 1434314.97
N6018 411581.76 1434314.23
N6019 411597.13 1434269.94
N6020 411733.60 1434275.81
N6021 411591.91 1434264.43
N6022 411733.25 1434269.40
N6023 411582.81 1434233.49
N6024 411579.38 1434347.42
N6025 411787.38 1434132.53
N6026 411821.26 1434384.58
N6027 411733.73 1434281.67
N6028 411795.67 1434285.90
N6029 411823.92 1434061.74
N6030 411844.82 1434222.48
N6031 411830.42 1434060.17
N6032 411851.33 1434221.58
N6033 411850.43 1434212.40
N6034 412049.10 1434200.38
N6035 411972.58 1434116.57
N6036 412051.35 1434156.79
N6037 411935.54 1434200.63
N6038 411927.89 1434116.38
N6039 411839.09 1434125.95
N6040 411800.37 1434227.82
N6041 411892.31 1434216.03
N6042 411883.53 1434217.82
N6043 411881.13 1434383.29
N6044 411881.36 1434252.12
N6045 412043.63 1434255.69
N6046 412053.77 1434132.90
N6047 412031.68 1434384.69
N6048 411887.24 1434291.91
N6049 411953.15 1434382.95
N6050 411584.93 1434355.70
N6051 412134.29 1434384.69
N6052 411432.78 1434362.27
N6053 412133.13 1434394.65
N6054 412219.44 1434489.16
N6055 411145.66 1435000.12
N6056 412193.78 1434605.70
N6057 411377.06 1435014.53
N6058 411431.88 1434420.33
N6059 411305.45 1434602.01
N6060 411417.84 1434608.17
N6061 411297.14 1434613.87
N6062 411416.03 1434617.69
N6063 411248.45 1434651.18
N6064 411412.36 1434658.29
N6065 411345.85 1434616.81
N6066 411342.18 1434655.86
N6067 411239.36 1434690.36
N6068 411407.83 1434699.67
N6069 411347.40 1434660.38
N6070 411412.05 1434662.71
N6071 411408.47 1434695.79
N6072 411343.83 1434696.44
N6073 411339.05 1434729.20
N6074 411234.69 1434723.67
N6075 411405.00 1434731.42
N6076 411224.08 1434729.12
N6077 411403.73 1434739.61
N6078 411222.45 1434761.86
N6079 411402.85 1434770.47
N6080 411200.01 1434832.61
N6081 411395.17 1434845.03
N6082 411194.94 1434841.36
N6083 411394.44 1434853.77
N6084 411260.46 1434844.91
N6085 411254.89 1434901.33
N6086 411386.81 1434908.98
N6087 411385.96 1434915.40
N6088 411265.01 1434909.49
N6089 411247.33 1434945.15
N6090 411383.05 1434954.23
N6091 411246.39 1434954.23
N6092 411382.20 1434960.98
N6093 411389.55 1435019.24
N6094 411441.75 1434453.15
N6095 411495.17 1434436.17
N6096 411483.41 1434558.41
N6097 411435.24 1434554.37
N6098 411728.07 1434582.96
N6099 411559.70 1434366.17
N6100 411541.35 1434563.98
N6101 411600.49 1434370.25
N6102 411594.41 1434469.36
N6103 411602.62 1434424.98
N6104 411598.99 1434479.08
N6105 411718.66 1434488.76
N6106 411699.04 1434526.54
N6107 411702.86 1434533.60
N6108 411732.46 1434632.49
N6109 411707.37 1434586.56
N6110 411434.17 1434560.12
N6111 411584.55 1434574.79
N6112 411579.52 1434631.21
N6113 411430.42 1434607.69
N6114 411831.10 1434612.16
N6115 411654.42 1434478.90
N6116 411728.20 1434486.63
N6117 411811.64 1434394.01
N6118 411822.37 1434393.21
N6119 411849.21 1434612.32
N6120 411951.35 1434603.04
N6121 412079.11 1434600.86
N6122 411967.06 1434393.85
N6123 412034.34 1434437.54
N6124 411872.16 1434392.60
N6125 411955.81 1434434.48
N6126 411961.10 1434393.65
N6127 411831.81 1434494.59
N6128 411949.79 1434488.25
N6129 411908.98 1434547.54
N6130 411948.35 1434545.87
N6131 411895.78 1434555.77
N6132 411948.48 1434551.40
N6133 411429.16 1434620.41
N6134 411751.77 1434633.09
N6135 411406.49 1434857.49
N6136 411517.81 1434868.20
N6137 411407.33 1434847.54
N6138 411520.92 1434857.02
N6139 411413.10 1434787.58
N6140 411535.49 1434802.78
N6141 411412.37 1434796.76
N6142 411525.00 1434810.22
N6143 411597.49 1434821.82
N6144 411598.13 1434853.89
N6145 411597.86 1434869.71
N6146 411604.64 1434821.80
N6147 411593.92 1434758.57
N6148 411659.75 1434756.59
N6149 411605.01 1434765.40
N6150 411659.99 1434764.11
N6151 411682.41 1434889.57
N6152 411668.96 1434720.51
N6153 411669.86 1434763.86
N6154 411720.94 1434762.26
N6155 411575.77 1434948.75
N6156 411531.43 1434853.33
N6157 411671.89 1434820.37
N6158 411724.81 1434818.87
N6159 411724.36 1434812.13
N6160 411671.43 1434813.18
N6161 411716.88 1434712.73
N6162 411798.43 1434709.59
N6163 411748.66 1434712.40
N6164 411760.25 1434844.97
N6165 411758.09 1434711.27
N6166 411791.10 1434621.80
N6167 411808.66 1434821.37
N6168 411820.47 1434816.14
N6169 411853.79 1434619.50
N6170 411856.94 1434759.06
N6171 411860.86 1434797.21
N6172 411900.80 1434771.20
N6173 411955.18 1434611.54
N6174 411955.09 1434652.35
N6175 411960.07 1434651.45
N6176 412093.64 1434394.00
N6177 412097.78 1434568.95
N6178 412200.67 1434624.37
N6179 411466.40 1435039.68
N6180 411080.21 1435154.39
N6181 411382.95 1435092.92
N6182 411387.99 1435041.14
N6183 411383.88 1435178.85
N6184 411058.65 1435160.87
N6185 411486.40 1435087.72
N6186 411820.98 1434944.65
N6187 411810.27 1434850.34
N6188 411777.94 1434949.98
N6189 411794.18 1435075.13
N6190 411662.31 1435080.75
N6191 411849.38 1435073.96
N6192 411698.66 1435155.17
N6193 412105.76 1435136.95
N6194 411773.90 1435077.63
N6195 411778.36 1435149.39
N6196 411822.83 1434841.90
N6197 411909.76 1434790.08
N6198 411968.26 1435281.17
N6199 411702.68 1435224.61
N6200 411964.13 1435208.63
N6201 411691.43 1435235.71
N6202 411955.48 1435217.51
N6203 411706.06 1435433.08
N6204 411920.98 1435421.22
N6205 411757.03 1435295.67
N6206 411977.15 1435281.03
N6207 411923.40 1434884.27
N6208 412142.33 1434867.53
N6209 412112.97 1434672.53
N6210 412127.13 1434762.52
N6211 412056.25 1435120.08
N6212 412020.44 1434773.03
N6213 412127.02 1434761.63
N6214 412136.10 1434785.71
N6215 412036.17 1434875.06
N6216 412062.91 1435133.11
N6217 411952.38 1435029.39
N6218 412044.00 1435017.93
N6219 411169.17 1435261.49
N6220 411165.85 1435307.62
N6221 411355.61 1435328.58
N6222 411166.04 1435300.21
N6223 411240.24 1435303.96
N6224 411319.80 1435320.62
N6225 411366.55 1435323.02
N6226 412040.94 1435147.67
N6227 412100.59 1435147.15
N6228 411911.33 1435284.78
N6229 411925.00 1435491.33
N6230 411707.47 1435501.31
N6231 411983.35 1435489.38
N6232 411713.81 1435653.25
N6233 411878.02 1435655.94
N6234 411710.05 1435663.88
N6235 411875.89 1435668.11
N6236 411752.37 1435231.20
N6237 411764.59 1435423.05
N6238 411706.68 1435426.33
N6239 411915.84 1434828.44
N6240 412136.51 1434811.81
N6241 411398.32 1434812.51
N6242 411295.91 1434805.65
N6243 411289.84 1434839.84
N6244 411534.03 1434821.25
N6245 411659.20 1434820.74
N6246 411651.66 1434906.81
N6247 411658.64 1434714.24
N6248 411606.37 1434716.95
N6249 411668.40 1434713.10
N6250 411666.49 1434659.25
N6251 411583.08 1434284.70
N6252 411438.34 1434236.39
N6253 411595.89 1434424.34
N6254 411733.90 1434437.51
N6255 411732.24 1434460.74
N6256 411562.29 1433956.18
N6257 411999.10 1433929.46
N6258 411526.44 1434785.89
N6259 411567.00 1434953.42
N6260 412054.22 1434072.18
N6261 412205.25 1434018.17
N6262 412207.11 1434023.14
N6263 412050.02 1434079.49
N6264 412185.48 1433975.32
N6265 412320.24 1433918.71
N6266 412197.55 1433950.84
N6267 412206.62 1433970.28
N6268 412312.74 1433813.11
N6269 412062.59 1434112.30
N6270 412224.60 1434066.22
N6271 412237.67 1434013.98
N6272 412562.39 1433972.91
N6273 412250.03 1434079.52
N6274 412421.01 1434057.52
N6275 412273.08 1434132.87
N6276 412582.09 1434095.17
N6277 412371.99 1433787.49
N6278 412427.37 1434113.69
N6279 412419.15 1434052.44
N6280 412573.33 1434035.81
N6281 412419.54 1433938.75
N6282 412555.94 1433921.95
N6283 412600.16 1434219.64
N6284 412655.03 1434146.59
N6285 412590.19 1434153.54
N6286 412487.59 1434190.03
N6287 412483.57 1434153.32
N6288 412486.02 1434175.88
N6289 412591.07 1434158.62
N6290 412701.66 1434074.22
N6291 412582.86 1434100.03
N6292 412715.84 1434030.82
N6293 412580.07 1434041.43
N6294 412584.16 1433997.06
N6295 412817.48 1433965.91
N6296 412567.03 1433963.83
N6297 412816.40 1433931.41
N6298 412727.44 1433891.88
N6299 412820.58 1433882.62
N6300 412398.72 1433903.53
N6301 412819.79 1433838.72
N6302 412393.12 1433847.48
N6303 412820.22 1433801.45
N6304 412669.12 1433799.38
N6305 412674.20 1433861.96
N6306 412697.60 1433752.51
N6307 412819.59 1433739.07
N6308 412670.45 1433739.76
N6309 412816.68 1433678.59
N6310 412820.90 1433984.70
N6311 412744.10 1434017.35
N6312 412753.72 1434109.67
N6313 412698.43 1434117.14
N6314 412830.39 1434104.67
N6315 412844.95 1434214.56
N6316 412683.94 1434164.19
N6317 412686.28 1434219.70
N6318 412451.38 1434162.38
N6319 412458.57 1434239.45
N6320 412431.10 1434230.58
N6321 412559.25 1434248.09
N6322 412484.51 1434245.34
N6323 412476.88 1434371.66
N6324 412354.75 1434336.77
N6325 412476.41 1434324.99
N6326 412342.33 1434285.71
N6327 412478.65 1434280.41
N6328 412207.50 1434212.70
N6329 412283.50 1434202.62
N6330 412196.25 1434222.47
N6331 412285.58 1434210.58
N6332 412312.14 1434273.64
N6333 412158.80 1434280.87
N6334 412186.03 1434249.82
N6335 412189.38 1434280.45
N6336 412245.93 1434257.37
N6337 412248.16 1434276.94
N6338 412314.65 1434277.95
N6339 412197.10 1434287.28
N6340 412291.39 1434332.10
N6341 412198.13 1434338.48
N6342 412077.09 1434340.52
N6343 412135.47 1434347.86
N6344 412351.29 1434375.27
N6345 412477.76 1434307.07
N6346 412740.56 1434338.09
N6347 412599.90 1434310.34
N6348 412747.81 1434332.87
N6349 412832.16 1433702.87
N6350 412963.88 1433681.00
N6351 412958.25 1433650.05
N6352 413005.60 1433910.69
N6353 412840.19 1433839.32
N6354 412989.26 1433818.72
N6355 412830.48 1433754.08
N6356 412973.26 1433731.07
N6357 413040.48 1433758.40
N6358 412987.36 1433767.41
N6359 412964.87 1433649.59
N6360 413012.76 1433910.00
N6361 412997.73 1433821.24
N6362 413087.58 1433903.68
N6363 412830.17 1433895.09
N6364 412999.65 1433879.41
N6365 413129.83 1433854.11
N6366 413135.40 1433899.66
N6367 412827.34 1433926.73
N6368 413384.59 1433880.74
N6369 413137.12 1433858.51
N6370 413141.80 1433899.75
N6371 412827.24 1433931.93
N6372 413215.99 1433900.63
N6373 413224.44 1433966.07
N6374 413258.71 1433963.97
N6375 413298.28 1434131.74
N6376 413175.75 1434002.83
N6377 413265.29 1433987.40
N6378 413195.06 1434038.94
N6379 413275.29 1434027.29
N6380 413175.87 1434041.32
N6381 413119.14 1434039.18
N6382 413181.70 1434067.73
N6383 413124.68 1434077.42
N6384 413127.00 1434091.91
N6385 413098.77 1433910.06
N6386 413152.58 1433946.50
N6387 413106.28 1433952.95
N6388 413159.44 1433990.50
N6389 413111.73 1433995.62
N6390 413119.63 1434091.82
N6391 413092.70 1433910.41
N6392 412978.17 1434051.78
N6393 413112.08 1434037.32
N6394 413081.57 1433993.29
N6395 413104.67 1433991.22
N6396 412831.42 1433985.11
N6397 413037.85 1433954.71
N6398 413034.69 1433915.57
N6399 413040.02 1433992.09
N6400 412953.29 1434003.86
N6401 412863.18 1434184.42
N6402 413321.74 1434211.29
N6403 413182.02 1434239.60
N6404 412962.33 1434292.38
N6405 413421.21 1434212.86
N6406 413462.92 1434370.55
N6407 413463.26 1434235.29
N6408 413520.39 1434227.15
N6409 413566.17 1434264.28
N6410 413524.20 1434267.17
N6411 413525.21 1434277.68
N6412 413445.64 1434289.21
N6413 413546.43 1434299.62
N6414 413494.53 1434282.09
N6415 413370.86 1434308.57
N6416 413378.41 1434365.62
N6417 413365.42 1434373.40
N6418 412967.85 1434461.58
N6419 413145.77 1434405.39
N6420 413226.10 1434461.43
N6421 413274.08 1434404.32
N6422 413268.63 1434463.51
N6423 413341.19 1434360.76
N6424 413146.58 1434385.37
N6425 413148.83 1434447.19
N6426 413086.24 1434340.99
N6427 412963.10 1434364.71
N6428 412907.29 1434344.54
N6429 412998.50 1434309.08
N6430 413003.94 1434349.21
N6431 413044.19 1434282.83
N6432 413055.23 1434345.07
N6433 413083.66 1434347.96
N6434 413093.41 1434449.24
N6435 413060.90 1434387.41
N6436 413081.50 1434386.24
N6437 412963.44 1434507.38
N6438 413306.71 1434535.61
N6439 413307.25 1434465.71
N6440 413418.91 1434516.68
N6441 413314.43 1434474.09
N6442 413306.88 1434626.85
N6443 413391.56 1434545.52
N6444 413308.31 1434526.65
N6445 413389.79 1434606.46
N6446 413307.06 1434578.30
N6447 413215.89 1434559.67
N6448 413245.78 1434615.43
N6449 413165.05 1434567.24
N6450 413162.22 1434598.99
N6451 412956.13 1434562.59
N6452 413648.44 1434697.89
N6453 412958.84 1434562.91
N6454 412959.32 1434404.21
N6455 412895.62 1434325.33
N6456 412844.25 1434338.21
N6457 412858.67 1434267.27
N6458 412894.42 1434321.02
N6459 412859.67 1434273.24
N6460 413348.38 1434300.46
N6461 413350.10 1434364.27
N6462 413413.50 1434453.99
N6463 413427.89 1434649.48
N6464 413467.73 1434557.67
N6465 413472.85 1434631.42
N6466 413473.55 1434612.95
N6467 413488.77 1434661.01
N6468 413536.75 1434567.07
N6469 413541.45 1434648.68
N6470 413641.65 1434641.84
N6471 413493.66 1434661.55
N6472 413577.23 1434609.31
N6473 413581.68 1434646.23
N6474 413483.30 1434541.03
N6475 413458.45 1434432.39
N6476 413501.93 1434463.11
N6477 413463.88 1434504.37
N6478 413587.42 1434540.26
N6479 413616.82 1434505.55
N6480 413571.36 1434535.78
N6481 413587.30 1434534.62
N6482 413646.78 1434687.94
N6483 413606.13 1434453.61
N6484 413661.00 1434691.88
N6485 413613.08 1434454.03
N6486 413650.33 1434643.58
N6487 413842.54 1434650.28
N6488 413818.68 1434509.24
N6489 413798.59 1434257.36
N6490 413326.02 1434711.18
N6491 412966.80 1434575.16
N6492 413657.55 1434700.08
N6493 413355.21 1434644.40
N6494 413837.88 1434616.12
N6495 413763.49 1434514.50
N6496 413951.40 1434497.21
N6497 413472.52 1434387.00
N6498 413951.40 1434498.32
N6499 413953.21 1434416.03
N6500 414082.68 1434405.23
N6501 414135.28 1434474.41
N6502 414077.96 1434178.52
N6503 414006.97 1433427.35
N6504 413466.23 1433555.89
N6505 413745.27 1433508.23
N6506 413740.11 1433486.02
N6507 413773.59 1433647.83
N6508 413644.92 1433675.33
N6509 413495.78 1433606.67
N6510 413639.59 1433634.98
N6511 413765.98 1433610.03
N6512 413545.79 1433675.86
N6513 413635.94 1433648.48
N6514 413664.12 1433744.06
N6515 413555.11 1433708.23
N6516 413648.87 1433690.02
N6517 413574.20 1433744.01
N6518 413657.02 1433728.60
N6519 413583.64 1433778.93
N6520 413702.71 1433773.58
N6521 413648.49 1433775.85
N6522 413643.37 1433733.62
N6523 414205.39 1434592.09
N6524 414209.80 1434652.68
N6525 414318.59 1434653.01
N6526 414117.32 1434662.59
N6527 414125.96 1434792.63
N6528 414127.26 1434791.96
N6529 413994.34 1434808.74
N6530 413854.34 1434884.05
N6531 414028.50 1434981.39
N6532 413980.83 1434997.79
N6533 414047.48 1434944.61
N6534 414022.43 1434947.34
N6535 413796.93 1434942.73
N6536 412198.94 1434388.58
N6537 412153.87 1434267.29
N6538 413451.83 1434361.85
N6539 412960.99 1434349.79
N6540 413802.54 1434726.94
N6541 413849.27 1434684.33
N6542 413178.91 1434041.31
N6543 413556.73 1434678.82
N6544 413632.48 1434728.03
N6545 413505.12 1434720.68
N6546 413553.91 1434715.99
N6547 412405.33 1433902.63
N6548 413590.09 1434420.26
N6549 412969.36 1434354.29
N6550 413578.55 1439054.53
N6551 413628.65 1439262.18
N6552 414034.92 1440074.80
N6553 413962.62 1439736.15
N6554 413738.70 1439845.57
N6555 413945.42 1439818.60
N6556 413927.70 1439667.47
N6557 413229.86 1439420.04
N6558 413479.21 1439640.12
N6559 413487.80 1439510.36
N6560 413296.05 1439156.17
N6561 413628.94 1439562.56
N6562 413848.90 1439227.43
N6563 413572.09 1439278.17
N6564 413304.25 1439214.76
N6565 413334.94 1439454.32
N6566 413215.82 1439060.97
N6567 413274.47 1439432.28
N6568 414058.01 1438714.71
N6569 413187.79 1438941.95
N6570 414024.98 1438695.79
N6571 413184.59 1438922.16
N6572 413890.07 1438137.37
N6573 413736.84 1438799.44
N6574 413371.67 1438891.93
N6575 413413.68 1439044.43
N6576 413387.16 1438887.46
N6577 413403.40 1438945.92
N6578 413689.17 1438396.79
N6579 413664.79 1438405.82
N6580 414906.04 1439024.85
N6581 414756.82 1439096.20
N6582 414917.58 1439039.64
N6583 414789.03 1439131.83
N6584 414512.58 1438386.37
N6585 414873.33 1438934.04
N6586 414192.50 1438962.80
N6587 414424.55 1438990.06
N6588 414202.23 1439025.37
N6589 414642.95 1438954.88
N6590 414545.42 1438907.85
N6591 414632.57 1438894.64
N6592 414629.59 1438877.95
N6593 414663.78 1439096.16
N6594 414637.21 1438990.51
N6595 414545.86 1439012.25
N6596 414435.06 1439022.44
N6597 414648.59 1438988.71
N6598 414632.01 1438956.91
N6599 414204.10 1439032.11
N6600 414229.34 1438988.68
N6601 414422.28 1438957.78
N6602 414198.90 1438999.28
N6603 413546.13 1438226.03
N6604 414052.37 1440209.78
N6605 414368.30 1438234.42
N6606 415065.25 1439135.84
N6607 413372.23 1439311.09
N6608 413576.69 1439290.10
N6609 413740.26 1439753.33
N6610 413610.10 1439779.39
N6611 413626.55 1439561.68
N6612 414158.31 1439164.75
N6613 414171.36 1439105.10
N6614 414094.85 1439225.11
N6615 414006.48 1439230.70
N6616 413795.78 1439060.15
N6617 415567.86 1438593.37
N6618 416253.42 1438296.32
N6619 415768.00 1438541.22
N6620 415976.13 1438940.50
N6621 416197.46 1438652.39
N6622 416590.59 1438585.50
N6623 416583.54 1438586.63
N6624 416665.42 1438909.99
N6625 416419.67 1438619.31
N6626 416487.83 1438957.97
N6627 416238.93 1438666.75
N6628 416305.37 1439012.72
N6629 416483.86 1438974.35
N6630 416291.69 1438936.67
N6631 416473.65 1438897.30
N6632 416058.14 1439056.16
N6633 416155.52 1439160.82
N6634 416438.93 1439356.05
N6635 416504.86 1439355.63
N6636 417312.97 1439534.02
N6637 417487.23 1439385.85
N6638 417413.94 1439535.92
N6639 417379.47 1439471.00
N6640 417450.66 1439305.00
N6641 417505.59 1439433.13
N6642 417708.48 1439285.54
N6643 417619.48 1438134.72
N6644 416880.08 1439427.82
N6645 416931.50 1439255.68
N6646 416907.34 1439262.84
N6647 416950.79 1439396.31
N6648 417337.61 1440588.70
N6649 417287.39 1440694.03
N6650 416998.34 1440455.79
N6651 417089.05 1440366.48
N6652 416154.91 1440137.28
N6653 416226.46 1440095.70
N6654 416049.91 1440340.65
N6655 416022.13 1440229.70
N6656 416046.25 1440350.62
N6657 416195.11 1440235.81
N6658 416158.25 1440238.35
N6659 416011.58 1440395.18
N6660 415966.94 1440231.86
N6661 416275.29 1438855.98
N6662 416460.41 1438821.03
N6663 416908.90 1439276.99
N6664 416882.68 1439285.14
N6665 416909.67 1439279.42
N6666 416883.56 1439288.68
N6667 416110.28 1440582.68
N6668 416060.67 1440385.19
N6669 416286.37 1440396.45
N6670 416401.01 1440117.95
N6671 415781.86 1438533.88
N6672 416006.57 1438966.84
N6673 416299.32 1440483.12
N6674 416231.38 1440538.07
N6675 416261.55 1438367.96
N6676 416190.23 1440414.32
N6677 416507.64 1440523.85
N6678 417016.08 1440441.24
N6679 416102.26 1438870.66
N6680 416095.37 1439208.56
N6681 416397.62 1440110.55
N6682 416540.92 1440234.20
N6683 416512.91 1440509.45
N6684 416314.54 1438316.04
N6685 417626.26 1438043.90
N6686 417712.45 1439235.10
N6687 415877.76 1440429.88
N6688 416139.96 1440213.08
N6689 416173.27 1440326.34
N6690 416270.31 1440179.40
N6691 416878.52 1439271.55
N6692 416925.01 1439406.45
N6693 416049.56 1438624.19
N6694 416026.24 1438801.11
N6695 416005.83 1438757.82
N6696 416094.35 1438624.39
N6697 417773.68 1440059.52
N6698 417796.88 1439912.58
N6699 417693.18 1440047.70
N6700 417715.08 1439900.66
N6701 417717.27 1439762.62
N6702 417706.17 1439821.27
N6703 417830.01 1439674.47
N6704 417883.01 1439846.74
N6705 417722.19 1439264.60
N6706 417967.28 1439926.23
N6707 417891.21 1439468.81
N6708 417800.06 1439524.04
N6709 417744.57 1439424.78
N6710 417703.01 1439270.96
N6711 418147.26 1439620.56
N6712 418207.32 1439433.03
N6713 418228.08 1439558.60
N6714 418196.91 1439470.55
N6715 418155.52 1439519.00
N6716 418206.80 1439515.87
N6717 418354.96 1438644.48
N6718 418449.04 1438517.90
N6719 418253.02 1438535.30
N6720 418362.00 1438533.09
N6721 417884.75 1439266.65
N6722 418144.29 1439315.21
N6723 417887.46 1439267.75
N6724 418084.91 1439222.71
N6725 417950.75 1439253.19
N6726 417920.23 1439128.30
N6727 418111.15 1439293.41
N6728 418027.61 1439062.51
N6729 418218.00 1439196.32
N6730 418365.59 1439123.33
N6731 418266.83 1439170.30
N6732 418309.72 1439260.31
N6733 418027.76 1439075.56
N6734 418464.39 1439308.40
N6735 418289.72 1438989.96
N6736 418291.81 1438997.47
N6737 418452.94 1438955.08
N6738 418464.24 1438999.06
N6739 418401.30 1439021.26
N6740 418090.39 1439022.40
N6741 418073.08 1438926.45
N6742 418023.43 1439005.90
N6743 418136.17 1438554.33
N6744 418093.41 1438797.88
N6745 418438.05 1438836.23
N6746 418150.75 1438825.03
N6747 418073.22 1438901.68
N6748 418237.11 1438838.82
N6749 418284.85 1438991.96
N6750 417970.56 1438002.51
N6751 418431.32 1438025.36
N6752 417967.91 1437983.94
N6753 418428.83 1437989.54
N6754 418184.97 1437382.20
N6755 418413.10 1437402.10
N6756 417657.94 1438448.70
N6757 418427.57 1438371.32
N6758 418305.78 1438591.21
N6759 418356.31 1438589.07
N6760 418359.00 1439678.54
N6761 418115.73 1439302.35
N6762 417669.71 1439920.03
N6763 417590.68 1439856.79
N6764 417659.34 1440042.50
N6765 417854.50 1440071.11
N6766 417876.07 1439919.64
N6767 417911.90 1439937.01
N6768 417921.22 1440006.66
N6769 417874.90 1439930.15
N6770 417977.14 1439923.54
N6771 417716.93 1439247.14
N6772 418432.97 1438950.38
N6773 417700.77 1439864.31
N6774 418077.75 1439185.79
N6775 418186.50 1439141.23
N6776 418316.29 1439355.51
N6777 417638.79 1439809.20
N6778 417916.89 1439936.11
N6779 417981.61 1437523.04
N6780 417981.98 1437391.87
N6781 418491.33 1437415.47
N6782 418813.86 1439182.28
N6783 419002.71 1439532.65
N6784 418972.04 1439467.16
N6785 419019.67 1439438.70
N6786 419714.70 1438997.72
N6787 419961.92 1439325.14
N6788 419646.74 1439308.58
N6789 419638.91 1439561.09
N6790 421419.11 1439533.73
N6791 421102.01 1439374.05
N6792 421033.06 1439156.04
N6793 421136.22 1439353.83
N6794 420825.89 1439553.57
N6795 421036.63 1439226.37
N6796 420890.64 1439295.47
N6797 420917.19 1439363.96
N6798 421067.90 1439279.81
N6799 420943.68 1439185.83
N6800 420979.25 1439073.03
N6801 420964.59 1439178.80
N6802 420500.50 1439680.69
N6803 420593.56 1439763.48
N6804 420588.26 1439769.47
N6805 420630.90 1439812.59
N6806 420792.33 1439763.90
N6807 420896.93 1439634.65
N6808 420944.97 1439673.88
N6809 419648.94 1439914.75
N6810 419676.03 1439906.59
N6811 419672.05 1440030.81
N6812 419853.75 1439975.86
N6813 419633.96 1439871.77
N6814 419679.20 1440028.57
N6815 419880.31 1440011.62
N6816 420167.88 1439932.15
N6817 420057.12 1439956.03
N6818 419995.62 1439762.67
N6819 420011.80 1439808.40
N6820 419835.96 1439864.55
N6821 420401.88 1439815.35
N6822 420244.94 1439731.09
N6823 420285.29 1439698.34
N6824 420171.94 1439763.37
N6825 419748.47 1439720.69
N6826 419873.30 1439615.15
N6827 419752.32 1439666.49
N6828 419872.84 1439643.47
N6829 419976.38 1439674.13
N6830 419666.81 1439718.94
N6831 420810.12 1439539.68
N6832 420553.92 1439818.89
N6833 420796.21 1439527.77
N6834 419738.09 1439323.91
N6835 419603.54 1439890.11
N6836 420954.21 1439451.67
N6837 420858.65 1439218.37
N6838 419526.56 1439558.65
N6839 419700.41 1439566.00
N6840 419471.00 1439769.94
N6841 419943.91 1439583.32
N6842 419637.26 1439851.96
N6843 419584.04 1439934.40
N6844 419612.06 1439984.09
N6845 419080.40 1439624.22
N6846 419217.84 1439599.48
N6847 419007.48 1439644.67
N6848 419079.19 1439652.20
N6849 419080.64 1439594.13
N6850 419078.17 1439676.20
N6851 420106.50 1439631.40
N6852 420441.61 1439866.11
N6853 421132.39 1439797.21
N6854 420590.65 1439356.17
N6855 419892.10 1439331.09
N6856 420085.43 1439621.73
N6857 419973.64 1439663.64
N6858 419864.21 1439285.49
N6859 419682.62 1439005.88
N6860 419668.41 1439972.31
N6861 420028.87 1439863.43
N6862 419314.93 1436941.36
N6863 419509.01 1437968.67
N6864 419497.49 1437959.08
N6865 419482.10 1437814.69
N6866 419633.34 1437724.22
N6867 419819.83 1437708.97
N6868 419819.40 1438046.29
N6869 419792.05 1437515.62
N6870 419494.93 1438011.29
N6871 419588.74 1438087.66
N6872 419532.07 1438027.77
N6873 419645.74 1438482.21
N6874 419647.13 1438438.41
N6875 420057.77 1438384.02
N6876 420079.62 1438288.62
N6877 419913.37 1438290.10
N6878 420062.83 1438108.29
N6879 419987.78 1437696.21
N6880 419985.74 1437515.83
N6881 419930.65 1437517.87
N6882 419674.54 1437608.97
N6883 419477.87 1437552.81
N6884 419741.37 1437543.53
N6885 419723.77 1437381.34
N6886 419735.27 1437456.40
N6887 419909.95 1437447.15
N6888 419743.80 1437519.08
N6889 419925.21 1437510.81
N6890 419921.26 1437457.41
N6891 419944.86 1437591.60
N6892 419987.14 1437588.60
N6893 419439.16 1437367.79
N6894 419944.78 1437340.00
N6895 419344.36 1437178.39
N6896 419515.99 1437162.63
N6897 419427.83 1437277.13
N6898 419413.33 1437175.54
N6899 419473.82 1437167.73
N6900 419541.72 1437356.21
N6901 419502.57 1436987.04
N6902 419713.77 1437299.08
N6903 419719.58 1437356.80
N6904 419721.88 1437292.20
N6905 419678.84 1436887.10
N6906 419857.29 1436866.13
N6907 419874.59 1436995.92
N6908 419761.97 1436941.94
N6909 419866.80 1436929.58
N6910 419750.17 1436949.72
N6911 419757.28 1437008.31
N6912 419975.22 1436990.54
N6913 419694.73 1437017.45
N6914 419864.23 1437351.07
N6915 419827.32 1437001.36
N6916 420312.61 1437291.27
N6917 420261.60 1436827.02
N6918 419667.61 1438058.23
N6919 419517.29 1437830.07
N6920 419628.76 1437827.76
N6921 419956.27 1436852.79
N6922 419323.34 1436923.75
N6923 420145.79 1438144.66
N6924 419978.46 1437362.24
N6925 419388.95 1437408.41
N6926 419933.64 1437202.34
N6927 419847.88 1437210.99
N6928 419407.95 1437562.20
N6929 419741.37 1437541.87
N6930 419503.74 1434443.34
N6931 419390.46 1434466.13
N6932 419403.52 1434516.96
N6933 419073.93 1434600.32
N6934 419039.22 1434562.93
N6935 419097.25 1434972.40
N6936 419110.80 1434859.33
N6937 419152.85 1434847.82
N6938 419137.63 1434724.77
N6939 419149.71 1434849.93
N6940 419226.47 1434876.25
N6941 419218.34 1434840.66
N6942 419248.52 1434962.34
N6943 419131.09 1434933.71
N6944 419235.59 1434915.04
N6945 419542.64 1434916.58
N6946 419465.13 1434965.36
N6947 419455.43 1434876.36
N6948 419488.06 1434872.06
N6949 419408.05 1434881.25
N6950 419335.33 1434863.32
N6951 419226.91 1434877.69
N6952 419091.47 1434701.24
N6953 419171.12 1434678.33
N6954 419100.46 1435067.95
N6955 419135.53 1435268.35
N6956 419054.64 1435237.29
N6957 419198.48 1435428.64
N6958 419201.64 1435435.16
N6959 419483.86 1435402.26
N6960 419260.18 1435426.47
N6961 419251.98 1435330.72
N6962 419401.90 1435227.54
N6963 419473.34 1435403.51
N6964 419314.39 1435420.34
N6965 419347.58 1435679.04
N6966 419368.83 1435677.98
N6967 419380.12 1435681.16
N6968 419463.71 1435672.62
N6969 419429.02 1435675.93
N6970 419452.88 1435862.10
N6971 419333.15 1435568.38
N6972 419457.61 1435549.21
N6973 419328.84 1435539.85
N6974 419267.61 1435481.97
N6975 419313.48 1435477.86
N6976 420096.34 1434396.06
N6977 419968.35 1434729.88
N6978 419967.62 1434666.62
N6979 419986.51 1434672.87
N6980 419959.03 1434507.61
N6981 420035.12 1434529.95
N6982 419361.69 1434529.80
N6983 419385.31 1434595.32
N6984 419472.86 1435276.55
N6985 419520.34 1435268.23
N6986 419546.24 1435856.63
N6987 419457.04 1435167.00
N6988 419501.09 1435509.60
N6989 419706.92 1435836.70
N6990 419531.67 1435841.41
N6991 419530.19 1435855.46
N6992 419700.25 1435369.67
N6993 419798.70 1435359.88
N6994 419763.48 1435256.90
N6995 419849.63 1435605.58
N6996 420064.21 1435175.41
N6997 420142.17 1435166.89
N6998 420151.59 1435162.99
N6999 420141.21 1435022.12
N7000 420050.86 1435020.61
N7001 420131.96 1435012.53
N7002 412609.91 1432600.92
N7003 412525.29 1432597.42
N7004 412528.33 1432597.64
N7005 412494.62 1432983.95
N7006 412423.27 1432988.71
N7007 412509.60 1432986.11
N7008 412565.00 1433287.76
N7009 412526.55 1433304.13
N7010 412606.61 1433273.91
N7011 412721.03 1433236.61
N7012 412547.70 1433338.02
N7013 412618.67 1433314.68
N7014 412727.43 1433233.82
N7015 412789.33 1433223.68
N7016 412541.08 1433199.02
N7017 412673.94 1433161.22
N7018 412656.48 1433059.86
N7019 412527.01 1433140.89
N7020 412665.89 1433119.88
N7021 412571.49 1433074.61
N7022 412572.33 1432998.52
N7023 412721.81 1432999.27
N7024 412715.86 1432935.36
N7025 412781.59 1432935.71
N7026 412604.01 1432931.18
N7027 412603.15 1433000.97
N7028 412880.46 1432919.58
N7029 412829.50 1432924.72
N7030 412821.39 1432966.44
N7031 412859.98 1433063.64
N7032 412091.94 1432730.18
N7033 412297.14 1433443.00
N7034 412173.96 1433419.28
N7035 412276.75 1433372.39
N7036 412147.77 1433540.35
N7037 412345.37 1433497.37
N7038 412454.35 1433420.60
N7039 412473.95 1433479.26
N7040 412469.30 1433482.16
N7041 412542.15 1433468.87
N7042 412335.11 1433444.31
N7043 412362.86 1433575.61
N7044 412221.75 1433612.45
N7045 412624.41 1433516.84
N7046 412282.88 1433597.10
N7047 412327.42 1433789.18
N7048 412318.71 1433743.64
N7049 412342.11 1433736.82
N7050 412227.88 1433661.64
N7051 412294.51 1433637.77
N7052 412298.44 1433645.83
N7053 412634.52 1433559.27
N7054 412643.97 1433562.67
N7055 412808.51 1433528.09
N7056 412274.85 1433457.55
N7057 412806.34 1433388.96
N7058 412566.12 1433332.65
N7059 412579.88 1433396.42
N7060 412678.50 1433370.46
N7061 412805.70 1433324.60
N7062 412683.78 1433358.16
N7063 412806.36 1433329.13
N7064 412759.34 1432862.01
N7065 412791.08 1433055.45
N7066 412833.01 1432867.42
N7067 412791.35 1432968.41
N7068 412878.85 1433233.57
N7069 412939.66 1433117.58
N7070 412876.78 1433163.01
N7071 412857.36 1433058.45
N7072 412807.19 1433282.01
N7073 412808.52 1433358.65
N7074 412929.02 1433218.04
N7075 413017.77 1433190.00
N7076 413007.68 1433120.36
N7077 412882.75 1433061.25
N7078 412717.70 1432934.69
N7079 413990.56 1430481.00
N7080 413974.59 1430543.20
N7081 413989.28 1430418.29
N7082 413994.90 1430481.10
N7083 413869.31 1430347.88
N7084 413870.05 1430414.57
N7085 414109.23 1430408.41
N7086 414113.85 1430289.73
N7087 414101.02 1430418.61
N7088 414198.00 1430420.86
N7089 414251.18 1430357.65
N7090 414241.36 1430794.21
N7091 414320.27 1430775.16
N7092 413842.75 1430635.85
N7093 414215.37 1430633.04
N7094 413877.02 1430596.37
N7095 413880.83 1430636.17
N7096 414122.65 1430574.60
N7097 414209.42 1430567.91
N7098 414193.48 1430815.26
N7099 414322.25 1430785.11
N7100 414284.06 1430607.72
N7101 414347.60 1430914.21
N7102 414027.93 1430915.97
N7103 414536.44 1430801.70
N7104 414318.65 1430709.03
N7105 414794.54 1430601.72
N7106 414365.05 1430697.71
N7107 414394.54 1430834.65
N7108 414425.04 1430979.00
N7109 414360.34 1430998.99
N7110 414876.65 1430882.61
N7111 414107.88 1430988.49
N7112 414231.56 1430957.14
N7113 414252.69 1431022.33
N7114 414371.62 1431000.62
N7115 414370.19 1430991.44
N7116 414507.81 1430665.64
N7117 414567.91 1430948.59
N7118 414544.69 1430839.61
N7119 414660.80 1430816.36
N7120 414528.94 1430761.58
N7121 414651.32 1430733.33
N7122 414631.50 1430637.84
N7123 414691.17 1430922.33
N7124 414833.45 1430732.66
N7125 414717.03 1430759.56
N7126 414747.76 1430910.32
N7127 415014.20 1433289.75
N7128 415158.46 1433643.22
N7129 414211.00 1430693.44
N7130 414232.72 1430806.29
N7131 414156.34 1430697.36
N7132 414221.95 1430692.07
N7133 414877.84 1430882.16
N7134 414905.76 1430963.80
N7135 415103.72 1430925.37
N7136 414255.06 1430420.02
N7137 414505.66 1430424.55
N7138 414830.24 1430391.26
N7139 413859.83 1430439.93
N7140 413860.27 1430477.31
N7141 414203.18 1430481.00
N7142 414052.78 1430288.48
N7143 414106.06 1430294.73
N7144 414148.30 1431045.33
